# PART A - ENERGY MINIMIZATION

# 1) Initialization
units lj
dimension 3
atom_style atomic
pair_style lj/cut 2.5
boundary p p p

# 2) System definition
region simulation_box block -20 20 -20 20 -20 20
create_box 2 simulation_box
Created orthogonal box = (-20 -20 -20) to (20 20 20)
  1 by 1 by 1 MPI processor grid
create_atoms 1 random 8000 341341 simulation_box
Created 8000 atoms
  using lattice units in orthogonal box = (-20 -20 -20) to (20 20 20)
  create_atoms CPU = 0.001 seconds
create_atoms 2 random 8000 127569 simulation_box
Created 8000 atoms
  using lattice units in orthogonal box = (-20 -20 -20) to (20 20 20)
  create_atoms CPU = 0.000 seconds

# 3) Simulation settings
mass 1 1
mass 2 1
pair_coeff 1 1 5.0 1.0
pair_coeff 2 2 5.0 1.0
pair_coeff 1 2 0.05 1.0

# 4) Visualization
thermo 10
thermo_style custom step temp pe ke etotal press
dump dump_all_atoms_per_100_timestep all atom 10 ../data/raw/trajectory/dump_all_atoms_per_100_timestep.min.lammpstrj

# 5) Run
minimize 1.0e-4 1.0e-6 1000 10000
Generated 0 of 1 mixed pair_coeff terms from geometric mixing rule
Neighbor list info ...
  update: every = 1 steps, delay = 0 steps, check = yes
  max neighbors/atom: 2000, page size: 100000
  master list distance cutoff = 2.8
  ghost atom cutoff = 2.8
  binsize = 1.4, bins = 29 29 29
  1 neighbor lists, perpetual/occasional/extra = 1 0 0
  (1) pair lj/cut, perpetual
      attributes: half, newton on
      pair build: half/bin/atomonly/newton
      stencil: half/bin/3d
      bin: standard
Per MPI rank memory allocation (min/avg/max) = 8.446 | 8.446 | 8.446 Mbytes
   Step          Temp          PotEng         KinEng         TotEng         Press     
         0   0              1.5857441e+11  0              1.5857441e+11  1.5857442e+11
        10   0              42286.763      0              42286.763      42378.189    
        20   0              10.689758      0              10.689758      18.289108    
        30   0             -4.8822028      0             -4.8822028     -0.86673431   
        40   0             -5.678387       0             -5.678387      -0.8312127    
        50   0             -6.5691025      0             -6.5691025     -0.69408876   
        60   0             -7.1963134      0             -7.1963134     -0.64600173   
        70   0             -7.7181948      0             -7.7181948     -0.59177568   
        80   0             -8.1913582      0             -8.1913582     -0.55962535   
        90   0             -8.6691867      0             -8.6691867     -0.51656095   
       100   0             -9.0286466      0             -9.0286466     -0.50530122   
       110   0             -9.3817718      0             -9.3817718     -0.48146895   
       120   0             -9.6830494      0             -9.6830494     -0.46372573   
       130   0             -10.017703      0             -10.017703     -0.44918819   
       140   0             -10.375538      0             -10.375538     -0.43331598   
       150   0             -10.716716      0             -10.716716     -0.42184214   
       160   0             -10.982469      0             -10.982469     -0.41635896   
       170   0             -11.276212      0             -11.276212     -0.40207352   
       180   0             -11.52169       0             -11.52169      -0.39752943   
       190   0             -11.81244       0             -11.81244      -0.38626229   
       200   0             -12.106161      0             -12.106161     -0.37450385   
       210   0             -12.392309      0             -12.392309     -0.36335505   
       220   0             -12.666807      0             -12.666807     -0.35708348   
       230   0             -13.018748      0             -13.018748     -0.32818635   
       240   0             -13.226494      0             -13.226494     -0.34850688   
       250   0             -13.496125      0             -13.496125     -0.31747995   
       260   0             -13.716164      0             -13.716164     -0.31487425   
       270   0             -13.929903      0             -13.929903     -0.30975773   
       280   0             -14.135532      0             -14.135532     -0.30202724   
       290   0             -14.400102      0             -14.400102     -0.2887554    
       300   0             -14.615617      0             -14.615617     -0.30478997   
       310   0             -14.852385      0             -14.852385     -0.23888854   
       320   0             -15.069725      0             -15.069725     -0.27144387   
       330   0             -15.289305      0             -15.289305     -0.25147631   
       340   0             -15.486508      0             -15.486508     -0.24586889   
       350   0             -15.654752      0             -15.654752     -0.24149722   
       360   0             -15.825052      0             -15.825052     -0.23863458   
       370   0             -15.965958      0             -15.965958     -0.22777711   
       380   0             -16.082234      0             -16.082234     -0.21895661   
       390   0             -16.218713      0             -16.218713     -0.20300279   
       400   0             -16.358895      0             -16.358895     -0.20233085   
       410   0             -16.514372      0             -16.514372     -0.20137971   
       420   0             -16.658349      0             -16.658349     -0.17963044   
       430   0             -16.7904        0             -16.7904       -0.18522583   
       440   0             -16.896192      0             -16.896192     -0.16494602   
       450   0             -17.012779      0             -17.012779     -0.17384245   
       460   0             -17.152133      0             -17.152133     -0.16806822   
       470   0             -17.261262      0             -17.261262     -0.16372931   
       480   0             -17.354351      0             -17.354351     -0.15203695   
       490   0             -17.482881      0             -17.482881     -0.15004164   
       500   0             -17.602212      0             -17.602212     -0.14424248   
       510   0             -17.717549      0             -17.717549     -0.14508892   
       520   0             -17.822222      0             -17.822222     -0.13140264   
       530   0             -17.928394      0             -17.928394     -0.13864708   
       540   0             -18.026678      0             -18.026678     -0.12653661   
       550   0             -18.108006      0             -18.108006     -0.14277716   
       560   0             -18.210394      0             -18.210394     -0.12597452   
       570   0             -18.305434      0             -18.305434     -0.11944422   
       580   0             -18.3956        0             -18.3956       -0.11321793   
       590   0             -18.480673      0             -18.480673     -0.11458082   
       600   0             -18.561794      0             -18.561794     -0.10873483   
       610   0             -18.640343      0             -18.640343     -0.10821471   
       620   0             -18.719806      0             -18.719806     -0.10981994   
       630   0             -18.79825       0             -18.79825      -0.10931006   
       640   0             -18.866606      0             -18.866606     -0.10023966   
       650   0             -18.922824      0             -18.922824     -0.11636583   
       660   0             -18.995405      0             -18.995405     -0.097763605  
       670   0             -19.059076      0             -19.059076     -0.092484796  
       680   0             -19.135083      0             -19.135083     -0.08706655   
       690   0             -19.206836      0             -19.206836     -0.090027148  
       700   0             -19.27501       0             -19.27501      -0.093178146  
       710   0             -19.352477      0             -19.352477     -0.092180967  
       720   0             -19.416332      0             -19.416332     -0.090280684  
       730   0             -19.464628      0             -19.464628     -0.084839142  
       740   0             -19.504887      0             -19.504887     -0.079107613  
       750   0             -19.560995      0             -19.560995     -0.084409147  
       760   0             -19.613838      0             -19.613838     -0.084997742  
       770   0             -19.667972      0             -19.667972     -0.083749591  
       780   0             -19.718342      0             -19.718342     -0.084163917  
       790   0             -19.751829      0             -19.751829     -0.084473193  
       795   0             -19.768421      0             -19.768421     -0.088237201  
Loop time of 6.44956 on 1 procs for 795 steps with 16000 atoms

99.2% CPU use with 1 MPI tasks x 1 OpenMP threads

Minimization stats:
  Stopping criterion = energy tolerance
  Energy initial, next-to-last, final = 
      158574405750.887  -19.7671578582532  -19.7684212069387
  Force two-norm initial, final = 6.2290689e+17 216.47258
  Force max component initial, final = 4.3030934e+17 51.694481
  Final line search alpha, max atom move = 0.0020120849 0.10401369
  Iterations, force evaluations = 795 1194

MPI task timing breakdown:
Section |  min time  |  avg time  |  max time  |%varavg| %total
---------------------------------------------------------------
Pair    | 3.1455     | 3.1455     | 3.1455     |   0.0 | 48.77
Neigh   | 2.574      | 2.574      | 2.574      |   0.0 | 39.91
Comm    | 0.076364   | 0.076364   | 0.076364   |   0.0 |  1.18
Output  | 0.42629    | 0.42629    | 0.42629    |   0.0 |  6.61
Modify  | 0          | 0          | 0          |   0.0 |  0.00
Other   |            | 0.2274     |            |       |  3.53

Nlocal:          16000 ave       16000 max       16000 min
Histogram: 1 0 0 0 0 0 0 0 0 0
Nghost:           8032 ave        8032 max        8032 min
Histogram: 1 0 0 0 0 0 0 0 0 0
Neighs:         273189 ave      273189 max      273189 min
Histogram: 1 0 0 0 0 0 0 0 0 0

Total # of neighbors = 273189
Ave neighs/atom = 17.074313
Neighbor list builds = 316
Dangerous builds = 1
write_data ../data/raw/topology/minimized_coordinate.data pair ij
System init for write_data ...
Generated 0 of 1 mixed pair_coeff terms from geometric mixing rule
Total wall time: 0:00:06
