# Molecular Dynamics - Stress-Strain Curve of Carbon Nanotube with Unbreakable Bonds

# 1) Initialization
## Define simulation temperature, T=300K
variable T equal 300

units real
atom_style molecular
boundary f f f
pair_style lj/cut 14

bond_style harmonic
angle_style harmonic
dihedral_style opls
improper_style harmonic

special_bonds lj 0.0 0.0 0.5

# 2) System definition
## Import VMD generated initial carbon nanotube topography
read_data ../data/raw/topology/cnt_molecular.data
Reading data file ...
  orthogonal box = (-40 -40 -12.130411) to (40 40 67.869589)
  1 by 1 by 1 MPI processor grid
  reading atoms ...
  700 atoms
  scanning bonds ...
  3 = max bonds/atom
  scanning angles ...
  3 = max angles/atom
  scanning dihedrals ...
  12 = max dihedrals/atom
  scanning impropers ...
  3 = max impropers/atom
  reading bonds ...
  1035 bonds
  reading angles ...
  2040 angles
  reading dihedrals ...
  4030 dihedrals
  reading impropers ...
  670 impropers
Finding 1-2 1-3 1-4 neighbors ...
  special bond factors lj:    0        0        0.5     
  special bond factors coul:  0        0        0       
     3 = max # of 1-2 neighbors
     6 = max # of 1-3 neighbors
    18 = max # of 1-4 neighbors
    18 = max # of special neighbors
  special bonds CPU = 0.000 seconds
  read_data CPU = 0.011 seconds

# 3) Simulation settings
## Import OPLS-AA Force Field Bonded & Non-Bonded Potentials
include ../data/force-field/opls-aa.lammps
## Bonded & Non-Bonded Potentials. Parameters Taken from OPLS-AA (Optimised Potentials for Liquid Simulations-All-Atom) force field
pair_coeff 1 1 0.066 3.4
bond_coeff 1 469 1.4
angle_coeff 1 63 120
dihedral_coeff 1 0 7.25 0 0
improper_coeff 1 5 180

## Calculate the negative of the x, y & z centre of mass (cm) components of the carbon_atoms group
## Recenter the carbon nanotube at the origin (0, 0, 0) by displacing them by the calculated center of mass variables
group carbon_atoms type 1
700 atoms in group carbon_atoms
variable carbon_xcm equal -1*xcm(carbon_atoms,x)
variable carbon_ycm equal -1*xcm(carbon_atoms,y)
variable carbon_zcm equal -1*xcm(carbon_atoms,z)
displace_atoms carbon_atoms move ${carbon_xcm} ${carbon_ycm} ${carbon_zcm}
displace_atoms carbon_atoms move 8.45130634422529e-18 ${carbon_ycm} ${carbon_zcm}
displace_atoms carbon_atoms move 8.45130634422529e-18 1.0914862143567e-15 ${carbon_zcm}
displace_atoms carbon_atoms move 8.45130634422529e-18 1.0914862143567e-15 -27.8695884500003
Displacing atoms ...

## Center the simulation box about the origin (0, 0, 0) by altering dimensions to be from -40 to 40 in x, y & z directions
change_box all x final -60 60 y final -60 60 z final -60 60
Changing box ...
  orthogonal box = (-60 -40 -12.130411) to (60 40 67.869589)
  orthogonal box = (-60 -60 -12.130411) to (60 60 67.869589)
  orthogonal box = (-60 -60 -60) to (60 60 60)

## Define top edge region, bottom edge region, & middle region of carbon nanotube
variable zmax equal bound(carbon_atoms,zmax)-0.5 # (- 0.5 Å)
variable zmin equal bound(carbon_atoms,zmin)+0.5 # (+ 0.5 Å)
region region_top block INF INF INF INF ${zmax} INF
region region_top block INF INF INF INF 27.3695895499997 INF
region region_bottom block INF INF INF INF INF ${zmin}
region region_bottom block INF INF INF INF INF -27.3695884500003
region region_middle block INF INF INF INF ${zmin} ${zmax}
region region_middle block INF INF INF INF -27.3695884500003 ${zmax}
region region_middle block INF INF INF INF -27.3695884500003 27.3695895499997

## Group atoms according to these regions
group carbon_top region region_top
10 atoms in group carbon_top
group carbon_bottom region region_bottom
10 atoms in group carbon_bottom
group carbon_middle region region_middle
680 atoms in group carbon_middle

# 4) Run
## Initialize velocities of atoms in the carbon_middle group at T (300 K) with no overall translational momentum (`mom yes``) or rotational momentum (`rot yes`)
## As a result of `mom yes` and `rot yes`, the systems net movement and rotation is null
velocity carbon_middle create ${T} 48455 mom yes rot yes
velocity carbon_middle create 300 48455 mom yes rot yes

## Apply the NVE ensemble to the system
fix nve_ensemble all nve

## Calculate the temperature of the carbon_middle group
compute carbon_middle_temp carbon_middle temp

## Apply a Berendsen thermostat to the carbon_middle group to regulate its temperature to ${T} with a relaxation time of 100 time units
fix berendsen_thermostat carbon_middle temp/berendsen ${T} ${T} 100
fix berendsen_thermostat carbon_middle temp/berendsen 300 ${T} 100
fix berendsen_thermostat carbon_middle temp/berendsen 300 300 100

## Modify Berendsen thermostat fix to use the temperature calculated by carbon_middle_temp compute command
fix_modify berendsen_thermostat temp carbon_middle_temp

## Apply an initial velocity of zero in the x and y directions to the top and bottom carbon groups
## Apply NULL initial velocity to z directions to the top and bottom carbon groups. This ensures this velocity command does not affect the z-direction
velocity carbon_top set 0 0 NULL
velocity carbon_bottom set 0 0 NULL

## Ensure all forces affecting the top and bottom carbon groups are constant in the x and y directions. Because initial velocity is zero, this ensures they remain immobile in the x and y directions during the simulation
## NULL value is set for z-direction parameter, ensuring this `setforce` command will not modify existing forces in the z-direction
fix carbon_top_force carbon_top setforce 0 0 NULL
fix carbon_bottom_force carbon_bottom setforce 0 0 NULL

## Output state of all atoms every 1000 timesteps
dump dump_all_atoms_per_1000_timestep all atom 1000 ../data/raw/trajectory/dump_all_atoms_per_1000_timestep.lammpstrj

## Output thermodynamic data every 100 timesteps. Particularly the temperature of the carbon_middle group
thermo 100
thermo_modify temp carbon_middle_temp
WARNING: Temperature for thermo pressure is not for group all (src/thermo.cpp:529)

## Set simulation timestep to 1.0 femtoseconds and run initial simulation of 5000 timesteps to equilibrate the system before applying any deformation
timestep 1.0
run 5000
Generated 0 of 0 mixed pair_coeff terms from geometric mixing rule
Neighbor list info ...
  update: every = 1 steps, delay = 0 steps, check = yes
  max neighbors/atom: 2000, page size: 100000
  master list distance cutoff = 16
  ghost atom cutoff = 16
  binsize = 8, bins = 15 15 15
  1 neighbor lists, perpetual/occasional/extra = 1 0 0
  (1) pair lj/cut, perpetual
      attributes: half, newton on
      pair build: half/bin/newton
      stencil: half/bin/3d
      bin: standard
Per MPI rank memory allocation (min/avg/max) = 13.3 | 13.3 | 13.3 Mbytes
   Step          Temp          E_pair         E_mol          TotEng         Press     
         0   300            459.34281      2184.6086      3251.1424     -165.71176    
       100   222.69126      556.38139      2473.8101      3480.9119      21.611535    
       200   251.87174      601.19322      2490.9513      3601.9254      117.83469    
       300   248.06922      504.26705      2690.2044      3696.5562     -105.7236     
       400   280.75636      602.87801      2582.1807      3753.3012      112.73089    
       500   309.22611      540.62037      2608.6395      3775.1242     -25.646793    
       600   285.91174      472.92396      2750.0513      3801.6521     -179.78587    
       700   300.37722      610.14636      2586.7441      3804.845       119.53186    
       800   308.22717      563.54126      2625.6165      3813.0003      30.834474    
       900   289.38811      542.29919      2697.2058      3825.2179     -19.242949    
      1000   293.98394      592.03155      2631.6223      3818.6685      75.548582    
      1100   303.29272      500.34014      2712.386       3826.5815     -119.28451    
      1200   317.00073      524.98859      2661.186       3827.7746     -63.395275    
      1300   294.06952      591.02747      2633.3036      3819.519       83.906997    
      1400   304.64429      550.94704      2663.3761      3830.9141     -1.8141805    
      1500   304.24674      570.40285      2645.847       3832.0361      38.323905    
      1600   308.28885      547.44084      2650.6561      3822.0644     -17.531447    
      1700   292.07789      505.70268      2733.2801      3830.1397     -115.6931     
      1800   293.18004      558.22057      2678.4322      3830.0404      3.0635974    
      1900   296.6325       572.84412      2650.6567      3823.8761      46.481992    
      2000   287.80671      566.34087      2683.2118      3832.0648      26.725126    
      2100   307.87327      571.61473      2628.0024      3822.7434      43.30309     
      2200   290.73047      517.82232      2716.3613      3822.6134     -84.831502    
      2300   303.56343      528.90052      2685.3604      3828.6641     -62.652573    
      2400   305.72963      579.79063      2619.0752      3817.6535      57.100201    
      2500   299.31545      552.71048      2666.7915      3825.3074      2.3252908    
      2600   300.97844      576.18652      2645.05        3830.4079      51.616284    
      2700   312.71399      561.29416      2632.2036      3826.4215      18.919625    
      2800   299.93403      491.9517       2725.5109      3824.52       -141.69747    
      2900   316.06666      554.26843      2635.0077      3828.9855      2.5131101    
      3000   294.84566      578.93431      2646.6587      3822.3518      57.627469    
      3100   304.93165      540.73682      2667.1121      3825.0214     -21.027021    
      3200   300.97235      589.51937      2633.6802      3832.3586      77.663725    
      3300   300.46048      534.82104      2682.4223      3825.3663     -47.110678    
      3400   293.11525      493.27337      2736.57        3823.0998     -139.6986     
      3500   289.48587      594.86004      2649.6516      3830.4224      80.42224     
      3600   296.26607      560.22687      2666.5528      3826.4133      23.26284     
      3700   308.11836      551.10779      2656.1512      3830.8813      0.80575866   
      3800   295.29433      598.40976      2628.6782      3824.7548      95.45074     
      3900   302.13251      500.81341      2714.9571      3827.2777     -123.91742    
      4000   309.61629      525.86954      2675.9059      3828.4295     -61.983627    
      4100   301.71951      595.91624      2607.8407      3814.4282      93.946238    
      4200   297.27213      545.95631      2681.4163      3829.0425     -16.755226    
      4300   295.99031      571.99075      2661.3048      3832.3711      46.747484    
      4400   308.3036       556.37539      2641.9064      3822.2791      7.8948587    
      4500   305.46391      499.91246      2710.1589      3828.3211     -123.93671    
      4600   302.76625      556.35035      2657.3205      3826.4607      4.0096721    
      4700   304.3895       574.22966      2631.2033      3821.5082      49.988158    
      4800   299.37755      557.3306       2669.7097      3832.9715      7.5605112    
      4900   292.89545      575.39897      2662.4961      3830.7067      38.026024    
      5000   312.66371      526.08332      2661.7432      3820.6485     -61.491438    
Loop time of 5.58137 on 1 procs for 5000 steps with 700 atoms

Performance: 77.400 ns/day, 0.310 hours/ns, 895.837 timesteps/s, 627.086 katom-step/s
99.6% CPU use with 1 MPI tasks x 1 OpenMP threads

MPI task timing breakdown:
Section |  min time  |  avg time  |  max time  |%varavg| %total
---------------------------------------------------------------
Pair    | 2.7488     | 2.7488     | 2.7488     |   0.0 | 49.25
Bond    | 2.7955     | 2.7955     | 2.7955     |   0.0 | 50.09
Neigh   | 0          | 0          | 0          |   0.0 |  0.00
Comm    | 0.00040917 | 0.00040917 | 0.00040917 |   0.0 |  0.01
Output  | 0.0017721  | 0.0017721  | 0.0017721  |   0.0 |  0.03
Modify  | 0.030113   | 0.030113   | 0.030113   |   0.0 |  0.54
Other   |            | 0.004814   |            |       |  0.09

Nlocal:            700 ave         700 max         700 min
Histogram: 1 0 0 0 0 0 0 0 0 0
Nghost:              0 ave           0 max           0 min
Histogram: 1 0 0 0 0 0 0 0 0 0
Neighs:         104180 ave      104180 max      104180 min
Histogram: 1 0 0 0 0 0 0 0 0 0

Total # of neighbors = 104180
Ave neighs/atom = 148.82857
Ave special neighs/atom = 17.428571
Neighbor list builds = 0
Dangerous builds = 0

## Calculate the distance between the center of mass of the top and bottom carbon groups in the z-direction
variable cnt_length equal xcm(carbon_top,z)-xcm(carbon_bottom,z)

## Calculate strain via equation (change in cnt length - initial cnt length)/initial cnt length) * 100 and output data
variable strain equal 100*(v_cnt_length-${cnt_length})/${cnt_length}
variable strain equal 100*(v_cnt_length-55.3906968086669)/${cnt_length}
variable strain equal 100*(v_cnt_length-55.3906968086669)/55.3906968086669
fix ave_time_1 all ave/time 10 100 1000 v_strain file ../data/raw/stress-strain/output_cnt_strain.dat

## Calculate stress & define variables
variable kcal_to_joule equal 4184 # kcal to J conversion factor
variable Na equal 6.022e23 # Avogadros number
variable Atom equal 1e-10 # 1 Å
variable pi equal 3.14159
variable f_total_kcal equal f_carbon_bottom_force[3]-f_carbon_top_force[3] # kcal/mol/Å
variable f_total_newton equal v_f_total_kcal*${kcal_to_joule}/${Na}/${Atom}
variable f_total_newton equal v_f_total_kcal*4184/${Na}/${Atom}
variable f_total_newton equal v_f_total_kcal*4184/6.022e+23/${Atom}
variable f_total_newton equal v_f_total_kcal*4184/6.022e+23/1e-10
variable rad equal 5.2e-10 # Radius of carbon nanotube
variable dC equal 3.4e-10 # Effective diameter of the carbon atom
variable A equal ${pi}*${rad}*${dC} # Surface area in m2
variable A equal 3.14159*${rad}*${dC} 
variable A equal 3.14159*5.2e-10*${dC} 
variable A equal 3.14159*5.2e-10*3.4e-10 
variable stress equal v_f_total_newton/${A}  # Stress in Pascal
variable stress equal v_f_total_newton/5.55433112e-19  

fix ave_time_2 all ave/time 10 100 1000 v_stress file ../data/raw/stress-strain/output_cnt_stress.dat

## Ensure all forces affecting the top and bottom carbon groups are constant. Because initial velocity is zero, this ensures they remain immobile during the simulation
fix carbon_top_force carbon_top setforce 0 0 0
fix carbon_bottom_force carbon_bottom setforce 0 0 0

## Apply a constant velocity of 0.00005 Å/fs in the z-direction to the top carbon group, simulating a compressive force
## Apply a constant velocity of -0.00005 Å/fs in the z-direction to the bottom carbon group, simulating a stretching force
## Run deformation simulation of 200,000 timesteps
## Because we have previously set all forces affecting the top and bottom carbon groups as constant, this imposes a constant velocity deformation of 2*0.00005 A/fs = 0.0001 A/fs = 10 m/s
velocity carbon_top set 0 0 0.00005
velocity carbon_bottom set 0 0 -0.00005
run 200000
Generated 0 of 0 mixed pair_coeff terms from geometric mixing rule
Per MPI rank memory allocation (min/avg/max) = 14.32 | 14.32 | 14.32 Mbytes
   Step          Temp          E_pair         E_mol          TotEng         Press     
      5000   312.66371      526.08332      2661.7432      3820.6485     -61.491438    
      5100   294.05779      517.01566      2717.8275      3830.0073     -92.380122    
      5200   307.7829       547.20266      2660.2884      3830.4344     -22.628113    
      5300   312.9975       517.6989       2680.6866      3831.883      -83.636167    
      5400   290.30154      525.77996      2723.3594      3836.701      -74.803784    
      5500   301.3685       541.95467      2682.4791      3834.3946     -37.890547    
      5600   304.52794      514.27307      2707.307       3837.9355     -96.698903    
      5700   298.63227      524.6479       2710.1889      3839.2596     -75.598181    
      5800   308.68285      536.70315      2677.9493      3839.4173     -53.039124    
      5900   296.74141      511.23073      2729.7482      3841.5747     -103.63412    
      6000   292.41529      525.77758      2726.1641      3843.7814     -77.318768    
      6100   309.3137       532.13741      2685.0175      3843.1966     -58.292848    
      6200   305.01353      508.01198      2717.7202      3843.0704     -113.20832    
      6300   297.19155      526.42707      2716.7887      3844.7225     -77.520014    
      6400   292.78654      526.67019      2727.6627      3846.924      -73.97623     
      6500   302.01716      509.00215      2726.4777      3846.7535     -113.97632    
      6600   301.55008      530.38327      2706.5627      3847.2743     -66.547436    
      6700   300.19581      519.82301      2723.906       3851.3164     -89.619419    
      6800   305.60383      504.97586      2725.2635      3848.7724     -118.86948    
      6900   302.18799      533.95374      2705.1155      3850.6886     -60.519527    
      7000   305.97506      512.72121      2721.768       3853.7735     -103.93446    
      7100   309.75456      504.95725      2717.1109      3849.0021     -121.59775    
      7200   294.22795      538.77994      2719.6413      3853.9298     -58.618855    
      7300   302.8315       508.29789      2736.0529      3857.2727     -119.89857    
      7400   310.3821       507.80835      2717.49        3853.5024     -114.91893    
      7500   299.72416      536.43199      2713.0977      3856.1624     -61.683945    
      7600   296.31385      498.08477      2765.1805      3862.9956     -139.97452    
      7700   297.25486      515.60482      2744.0637      3861.3034     -104.77984    
      7800   296.42023      527.23998      2733.8915      3861.0772     -80.479413    
      7900   312.44358      495.69031      2735.9256      3863.9924     -144.94759    
      8000   296.94454      523.09201      2739.0687      3863.1676     -94.993484    
      8100   302.50268      516.23627      2737.6715      3866.1641     -104.51238    
      8200   309.97984      493.7765       2745.1483      3866.3147     -148.84826    
      8300   298.14351      523.63321      2740.325       3867.3917     -92.452172    
      8400   292.87349      507.66028      2769.5896      3870.017      -125.03114    
      8500   300.43027      496.56491      2767.6739      3872.3007     -147.42597    
      8600   298.90854      520.9313       2747.3827      3873.2959     -98.205832    
      8700   299.59209      505.50917      2762.7021      3874.5767     -133.28383    
      8800   290.3917       497.57218      2790.0999      3875.4161     -149.1896     
      8900   297.67765      517.3527       2757.8517      3877.695      -110.89707    
      9000   300.43042      504.08942      2768.0833      3880.2349     -135.79579    
      9100   311.99933      494.37385      2752.11        3877.9612     -151.60462    
      9200   293.08271      522.44443      2769.4197      3885.0548     -103.51973    
      9300   290.12519      493.03582      2804.0984      3884.3389     -160.10637    
      9400   305.09345      498.67355      2768.2025      3884.376      -149.04055    
      9500   303.35075      521.75795      2752.6913      3888.4221     -98.199098    
      9600   300.34295      480.56879      2801.6451      3890.099      -189.16652    
      9700   308.55184      504.66394      2761.8806      3891.0442     -136.25475    
      9800   303.94451      516.60362      2760.0553      3891.8335     -115.17391    
      9900   299.38587      480.14161      2811.1367      3897.2263     -189.57568    
     10000   297.88098      502.58348      2789.5119      3894.9975     -142.30704    
     10100   299.90593      509.41172      2781.5484      3897.9608     -126.38768    
     10200   287.5464       480.90161      2838.0778      3900.9647     -191.05255    
     10300   291.71863      504.92228      2806.9789      3902.331      -143.20828    
     10400   292.27137      503.49313      2810.6767      3905.7184     -142.16822    
     10500   302.26774      476.17236      2818.6185      3906.5717     -203.79286    
     10600   298.41877      513.73094      2791.7513      3909.4729     -124.07175    
     10700   303.05623      489.81699      2804.8678      3908.0615     -174.79604    
     10800   296.6563       480.30404      2831.8184      3912.5459     -198.88922    
     10900   294.51845      518.54507      2800.7475      3915.3891     -117.42393    
     11000   299.39504      473.24956      2837.1314      3916.3475     -210.93877    
     11100   304.61767      497.58072      2807.249       3921.3668     -162.03272    
     11200   299.53195      508.94579      2804.5587      3919.7481     -139.17413    
     11300   299.98593      467.14127      2847.2634      3921.5672     -222.779      
     11400   287.02091      512.53246      2833.9662      3927.4204     -137.10016    
     11500   301.4876       494.45382      2822.4693      3927.1249     -172.09659    
     11600   295.13056      469.96829      2862.0371      3929.3408     -221.30395    
     11700   304.8703       511.65084      2802.6959      3931.3951     -136.84936    
     11800   298.16875      488.66742      2843.3055      3935.4575     -183.18778    
     11900   303.49504      470.43951      2850.9337      3935.6381     -222.53973    
     12000   295.24213      505.39503      2835.8396      3938.7959     -152.48715    
     12100   310.08253      485.23816      2829.5844      3942.4203     -192.73864    
     12200   311.42294      467.53805      2846.2775      3944.1263     -225.51209    
     12300   294.73963      505.81276      2844.0324      3946.3893     -153.34253    
     12400   300.03393      472.57952      2867.78        3947.6192     -219.95638    
     12500   303.03426      478.47043      2859.669       3951.4717     -211.25432    
     12600   285.33576      499.60436      2875.5926      3952.708      -175.76389    
     12700   296.06826      468.27314      2889.0913      3956.5977     -236.90592    
     12800   303.84333      491.6005       2853.3484      3959.9187     -185.41501    
     12900   305.42585      482.93632      2859.8516      3960.9607     -206.67225    
     13000   301.15738      473.21759      2882.7052      3965.4563     -225.87344    
     13100   298.21302      494.02587      2868.0962      3965.6962     -184.19513    
     13200   296.4971       478.47917      2891.6429      3970.2233     -219.7733     
     13300   295.3191       479.39372      2894.9867      3972.0974     -213.96709    
     13400   315.248        480.66078      2851.9916      3970.7048     -211.36898    
     13500   306.85742      483.54568      2873.6673      3978.2832     -206.81798    
     13600   300.55868      481.82684      2888.7848      3978.9334     -216.16595    
     13700   301.30959      473.7709       2899.2093      3982.8218     -231.22225    
     13800   291.13466      485.7596       2912.9705      3987.9779     -208.97851    
     13900   290.23005      474.22409      2925.7653      3987.4063     -234.7771     
     14000   307.16482      474.46974      2893.3428      3989.5049     -229.17624    
     14100   314.06033      486.90894      2873.2773      3995.835      -207.61772    
     14200   298.98638      467.69008      2924.1746      3997.0041     -247.96941    
     14300   301.98383      480.00315      2908.6283      3999.8377     -225.94768    
     14400   305.50778      485.50501      2897.6405      4001.4841     -216.22029    
     14500   296.81266      461.29172      2943.6128      4005.6445     -267.00542    
     14600   305.56382      485.72511      2905.006       4009.1831     -219.37855    
     14700   302.84271      480.65829      2917.4053      4011.0081     -230.6391     
     14800   296.05675      459.34927      2956.2925      4014.8517     -273.50008    
     14900   289.05741      494.39249      2937.7684      4017.2044     -207.56157    
     15000   301.38465      467.68104      2944.7939      4022.4685     -256.08427    
     15100   303.72336      461.30182      2948.3088      4024.3377     -268.73942    
     15200   301.14254      499.17779      2916.1304      4024.8116     -195.09525    
     15300   292.16911      456.86071      2983.0256      4031.2279     -284.71945    
     15400   306.76469      467.55348      2945.2245      4033.6605     -255.22676    
     15500   304.46115      492.32133      2926.0413      4034.5829     -206.66052    
     15600   298.95976      448.38286      2987.5431      4041.0115     -298.93035    
     15700   300.50161      475.74928      2960.377       4044.3325     -243.27645    
     15800   298.18424      476.46137      2965.1732      4045.1505     -242.91202    
     15900   310.56089      454.057        2965.8768      4048.4997     -288.43678    
     16000   301.28283      477.60758      2965.8587      4053.2537     -242.79004    
     16100   303.92881      464.09835      2977.6042      4056.8454     -268.20666    
     16200   301.3688       456.65132      2993.1974      4059.8102     -291.13225    
     16300   296.93559      476.71877      2985.29        4062.9975     -249.43083    
     16400   309.68896      462.74304      2976.0573      4065.6015     -274.50356    
     16500   302.53954      457.079        3000.8965      4070.3065     -290.46247    
     16600   317.69813      471.46621      2958.2677      4072.7454     -258.0029     
     16700   307.22883      463.20524      2991.0767      4076.1039     -278.30324    
     16800   300.25575      458.03774      3015.6231      4081.3695     -289.57051    
     16900   308.78257      469.11463      2988.9923      4083.0736     -271.90694    
     17000   301.10671      467.6363       3012.1861      4089.2533     -276.14901    
     17100   293.60393      458.86047      3038.1267      4091.2328     -295.50838    
     17200   298.90471      467.75027      3022.5817      4095.3061     -277.58986    
     17300   312.41058      465.67913      2999.9661      4097.9549     -278.36672    
     17400   313.22398      455.22048      3010.7157      4099.8921     -300.3275     
     17500   302.3433       468.46995      3024.3334      4104.7371     -274.88329    
     17600   290.26692      461.98601      3062.2586      4111.7361     -292.54731    
     17700   299.61984      447.98386      3057.3227      4111.7281     -317.58989    
     17800   302.19586      468.75398      3037.1971      4117.5864     -272.81992    
     17900   293.07188      462.56725      3066.3379      4122.0739     -294.85109    
     18000   299.67078      444.73673      3072.349       4123.6104     -330.40373    
     18100   289.77154      471.37434      3072.4418      4130.3051     -275.36335    
     18200   308.23825      453.12365      3055.2631      4132.2518     -311.19646    
     18300   306.29167      449.12494      3065.3         4134.3501     -320.40932    
     18400   286.5562       472.11959      3088.7657      4140.8664     -277.44768    
     18500   303.39105      442.42654      3088.1024      4144.5833     -340.06428    
     18600   298.37948      457.99261      3086.71        4148.6138     -308.59697    
     18700   301.80269      464.76079      3075.4048      4151.0052     -293.29971    
     18800   296.96316      439.63013      3116.0617      4156.7364     -350.63026    
     18900   292.48146      466.45816      3102.4245      4160.8563     -294.83164    
     19000   308.16166      457.15004      3083.0496      4163.9096     -312.6242     
     19100   313.35854      439.64595      3092.5303      4166.4046     -346.39922    
     19200   291.26535      468.69377      3113.0233      4171.2294     -297.34267    
     19300   296.87566      454.2078       3120.8123      4175.8875     -325.88201    
     19400   298.22682      440.51599      3136.9228      4181.041      -349.52747    
     19500   303.46572      468.3354       3102.0422      4184.5831     -297.43355    
     19600   302.91393      450.46872      3124.8746      4188.432      -333.46166    
     19700   296.42543      435.60015      3158.8294      4194.3858     -367.35602    
     19800   302.89626      469.75147      3115.5459      4198.3503     -294.03213    
     19900   292.30671      444.82669      3163.1316      4199.5783     -348.86886    
     20000   298.12504      437.09985      3166.097       4206.593      -366.03618    
     20100   296.27603      467.80634      3141.7543      4209.2144     -308.2777     
     20200   294.9233       433.96224      3182.1822      4213.0603     -374.99416    
     20300   305.9135       450.36857      3151.2521      4220.7804     -337.23119    
     20400   296.81772      460.40831      3161.5384      4222.6969     -325.11388    
     20500   308.47359      426.94856      3176.363       4227.6528     -391.38132    
     20600   296.96155      460.71255      3170.6245      4232.3783     -330.12314    
     20700   308.81964      447.94712      3162.3363      4235.3252     -350.43104    
     20800   289.65979      432.3373       3223.1907      4241.7908     -388.13845    
     20900   301.92508      460.44109      3174.2294      4245.7578     -331.64881    
     21000   310.31466      445.09963      3176.1939      4249.3611     -359.81442    
     21100   294.6543       440.21886      3216.5982      4253.1886     -373.8695     
     21200   283.99412      452.42284      3234.7751      4261.9935     -352.93731    
     21300   296.45427      443.94869      3220.3317      4264.2949     -364.8196     
     21400   297.53303      440.35182      3224.1429      4266.6927     -373.94444    
     21500   304.79442      453.8253       3204.4863      4275.2064     -348.42795    
     21600   306.55914      438.80366      3217.2903      4276.5605     -381.08192    
     21700   312.06622      443.13986      3207.8561      4282.6086     -373.79751    
     21800   288.92491      453.25706      3249.0601      4287.0925     -357.05705    
     21900   288.28373      430.35795      3279.0775      4292.9131     -404.01411    
     22000   300.39004      451.44366      3240.6546      4300.0787     -359.55328    
     22100   302.10933      442.29144      3247.0991      4300.8508     -379.93375    
     22200   301.50007      429.3006       3267.3798      4306.9075     -408.50644    
     22300   302.24198      458.93097      3240.7509      4311.4106     -348.12651    
     22400   309.08743      431.53848      3257.6732      4314.7953     -405.01487    
     22500   298.39319      435.83164      3282.7646      4322.5351     -398.01668    
     22600   307.92663      457.73839      3245.8859      4326.8586     -353.77424    
     22700   299.31015      428.69118      3296.3698      4330.8557     -420.33652    
     22800   295.90711      443.13157      3295.9686      4338.0073     -391.298      
     22900   293.44997      450.95784      3294.7087      4339.6005     -372.42105    
     23000   308.44098      427.84384      3294.7802      4346.8993     -417.61831    
     23100   306.31095      444.27161      3286.521       4350.7568     -386.42788    
     23200   282.78221      446.30779      3337.4752      4356.1257     -388.91072    
     23300   298.37957      422.64184      3335.3668      4361.9199     -433.94445    
     23400   305.9526       453.75167      3293.9183      4366.9088     -369.9077     
     23500   292.71242      440.13663      3339.6137      4372.1914     -403.56428    
     23600   302.72681      418.76847      3345.9312      4377.4096     -444.24838    
     23700   315.79738      456.27932      3285.3867      4380.8304     -367.8035     
     23800   289.57876      430.70487      3371.6188      4388.4224     -426.24936    
     23900   299.91958      424.00381      3360.9798      4392.0119     -441.94139    
     24000   293.88145      456.73899      3344.9126      4396.4589     -377.99931    
     24100   308.93944      426.11543      3352.2383      4403.6379     -438.28336    
     24200   304.06746      432.15589      3358.1641      4405.7434     -426.51876    
     24300   303.68495      446.20848      3352.988       4413.8457     -396.05615    
     24400   289.5944       424.85011      3409.6954      4420.6759     -446.49136    
     24500   299.57215      434.86566      3381.9618      4423.1525     -429.22979    
     24600   290.28672      442.44646      3400.5076      4430.4857     -414.49758    
     24700   302.40431      424.97396      3399.3245      4436.3557     -449.53516    
     24800   304.50754      433.50318      3388.843       4438.6603     -433.57429    
     24900   281.59768      437.75945      3439.7253      4447.43       -426.05046    
     25000   308.33955      427.60879      3400.0387      4451.7175     -444.98877    
     25100   302.37088      434.06953      3410.0822      4456.1413     -432.56889    
     25200   296.86223      431.94825      3430.2964      4463.0849     -432.75058    
     25300   296.81383      426.32996      3443.6193      4470.6915     -451.74309    
     25400   287.14626      428.52064      3462.4752      4472.1713     -449.33922    
     25500   299.07669      434.66306      3439.2267      4479.212      -435.39719    
     25600   303.00777      427.16852      3445.6913      4486.1385     -449.35438    
     25700   291.45728      422.70589      3478.4051      4491.0118     -464.30554    
     25800   299.43874      435.72021      3454.6754      4496.4506     -437.96046    
     25900   297.19228      428.18528      3472.6154      4502.309      -454.6486     
     26000   295.27136      422.19027      3488.9619      4508.7726     -470.62781    
     26100   296.94566      431.36971      3480.1555      4512.5343     -448.44989    
     26200   301.48661      431.43861      3479.7785      4521.417      -457.49055    
     26300   303.81561      423.16724      3487.7362      4525.8172     -470.3609     
     26400   299.05106      430.8046       3494.1621      4530.237      -458.90791    
     26500   300.94102      425.94622      3502.1921      4537.2339     -470.18737    
     26600   302.41919      422.50215      3509.3245      4543.914      -476.91042    
     26700   308.39948      439.1574       3485.5333      4548.882      -443.52379    
     26800   313.54909      419.04345      3501.2515      4554.909      -487.43145    
     26900   299.96872      424.17419      3528.4736      4559.7755     -477.04745    
     27000   294.33638      441.55127      3529.9671      4567.2463     -443.50039    
     27100   302.78631      411.27665      3549.353       4573.4601     -504.62361    
     27200   305.88148      431.06306      3527.4275      4577.5855     -465.24307    
     27300   304.051        434.55893      3536.3199      4586.2689     -461.2957     
     27400   304.65714      412.38658      3562.9123      4591.9158     -504.9955     
     27500   291.87058      433.94819      3572.2917      4596.9772     -468.90827    
     27600   285.45259      427.27662      3597.1432      4602.1673     -485.82063    
     27700   301.53293      412.06945      3586.7663      4609.1294     -507.96654    
     27800   294.80707      433.7828       3586.0891      4616.5525     -471.24913    
     27900   293.97693      425.03665      3602.2131      4622.2502     -486.65743    
     28000   311.15972      407.0312       3590.68        4627.4891     -520.99739    
     28100   301.64449      433.92408      3591.3258      4635.7692     -477.00671    
     28200   298.60071      424.3173       3612.6167      4641.2929     -492.09448    
     28300   308.02228      402.72842      3620.658       4646.8143     -532.57904    
     28400   290.51797      442.36194      3624.3105      4654.6721     -464.94035    
     28500   297.46847      416.92406      3639.837       4658.8284     -513.11379    
     28600   305.37447      405.23824      3643.9857      4667.2927     -532.57141    
     28700   295.08725      444.14784      3631.0064      4672.402      -462.8764     
     28800   300.83519      407.06791      3662.486       4678.4353     -532.71513    
     28900   309.28858      412.80288      3646.555       4685.3487     -522.77051    
     29000   307.00822      443.07518      3625.3647      4689.8153     -469.46094    
     29100   295.52095      407.76915      3694.4525      4700.3472     -541.77508    
     29200   308.27161      421.39071      3658.2603      4703.5835     -514.42934    
     29300   297.9431       435.37229      3673.3352      4711.7353     -492.87172    
     29400   292.91377      406.73547      3718.8979      4718.4821     -549.50624    
     29500   302.45289      428.41153      3682.4122      4722.9793     -512.86397    
     29600   288.83074      433.55357      3714.7135      4732.8518     -506.76436    
     29700   291.75585      404.32916      3744.0953      4738.9296     -564.26257    
     29800   313.05105      428.33842      3684.2032      4746.1475     -513.21081    
     29900   305.4322       430.6802       3702.0804      4750.9463     -509.56438    
     30000   287.82177      401.90775      3774.9126      4759.363      -573.01944    
     30100   302.10221      432.60267      3720.679       4764.7275     -513.61395    
     30200   304.22394      424.75835      3730.1663      4770.6648     -528.48961    
     30300   296.11444      401.42126      3777.9354      4778.6834     -571.10661    
     30400   297.74455      436.18383      3745.5963      4784.4062     -509.79381    
     30500   297.14579      411.75504      3780.5973      4793.7665     -557.13619    
     30600   291.34488      401.96531      3807.1485      4798.7871     -570.51741    
     30700   299.3763       440.07534      3760.265       4806.269      -502.21149    
     30800   301.18814      402.58671      3801.0177      4813.2002     -574.453      
     30900   290.14537      407.52459      3824.3655      4819.1356     -566.86009    
     31000   288.2252       438.52497      3804.017       4825.9011     -511.39708    
     31100   301.05153      394.36181      3829.1404      4832.8215     -596.53918    
     31200   309.29575      417.70639      3799.184       4842.8957     -549.53103    
     31300   296.78262      432.5967       3814.1307      4847.4065     -523.64914    
     31400   287.54084      393.4398       3879.9358      4855.3496     -606.91271    
     31500   301.2798       424.01917      3830.0301      4863.8305     -542.70654    
     31600   297.69951      427.72505      3836.4073      4866.6672     -543.56588    
     31700   301.21193      397.07688      3869.5757      4876.2965     -605.99803    
     31800   315.27916      421.25394      3823.8955      4883.265      -550.86975    
     31900   311.46137      420.22897      3839.0713      4889.6888     -555.50519    
     32000   296.15201      399.01906      3897.9958      4896.4177     -604.89946    
     32100   303.22709      420.49157      3871.5149      4905.729      -559.48748    
     32200   297.70145      420.46331      3890.3697      4913.3718     -567.54692    
     32300   299.22996      394.45518      3917.2283      4917.316      -618.45079    
     32400   298.46894      427.10224      3895.2139      4926.4083     -555.40891    
     32500   305.14832      418.05406      3899.6759      4935.341      -575.44084    
     32600   302.23237      391.82029      3936.5485      4940.0781     -627.18009    
     32700   294.98798      432.62096      3920.9891      4950.6569     -550.47733    
     32800   303.04923      408.13476      3935.7437      4957.241      -593.33013    
     32900   296.85543      396.85489      3966.1974      4963.8788     -618.209      
     33000   294.15849      433.06574      3942.3857      4970.8194     -552.84064    
     33100   302.77765      397.16918      3967.0404      4977.0225     -619.83318    
     33200   298.48942      410.88352      3970.8519      4985.869      -596.14696    
     33300   299.04863      425.27145      3962.6228      4993.1597     -569.39293    
     33400   308.46143      390.3571       3985.9964      5000.6702     -638.17189    
     33500   302.18529      419.37927      3979.1873      5010.1805     -582.01823    
     33600   291.95273      419.45371      4007.063       5017.4203     -584.84565    
     33700   298.56647      393.88432      4026.7034      5024.8773     -636.56093    
     33800   300.23546      418.87945      4004.494       5031.041      -586.97335    
     33900   299.79898      414.722        4017.036       5038.5421     -594.86808    
     34000   299.85309      394.24945      4045.6249      5046.768      -644.84989    
     34100   296.12826      412.49708      4042.837       5054.6888     -607.45426    
     34200   293.20894      415.47898      4054.1073      5063.0324     -606.63809    
     34300   290.50622      386.47394      4095.6662      5070.116      -663.17221    
     34400   287.67131      421.57851      4074.7901      5078.6067     -597.51314    
     34500   297.51615      409.08105      4073.9408      5085.1856     -622.0524     
     34600   298.23333      386.18171      4104.9833      5094.7803     -665.6239     
     34700   298.56432      432.05759      4064.2234      5100.5663     -580.8784     
     34800   302.71719      397.90067      4099.1196      5109.7108     -647.04237    
     34900   308.10046      393.62927      4099.8298      5117.0452     -655.04979    
     35000   291.58689      432.38016      4102.7349      5125.2781     -584.50032    
     35100   305.06239      386.44745      4130.0213      5133.9059     -669.82114    
     35200   302.30549      406.05018      4124.5383      5142.4458     -634.34884    
     35300   306.04503      423.01592      4105.716       5148.1579     -603.13263    
     35400   294.7841       386.50979      4174.3656      5157.5096     -682.84159    
     35500   306.82617      415.43789      4129.1358      5165.5807     -623.53603    
     35600   298.36132      415.61751      4152.7714      5172.2633     -627.09439    
     35700   292.81827      386.79006      4203.5611      5183.0065     -686.78159    
     35800   306.9023       417.19559      4151.6961      5190.0528     -623.51731    
     35900   306.03898      409.4508       4167.9027      5196.7672     -639.17193    
     36000   293.00543      386.18505      4227.4022      5206.6214     -693.27006    
     36100   301.68555      418.13989      4184.4328      5213.1752     -627.77986    
     36200   292.5891       410.38257      4220.1879      5222.762      -646.93574    
     36300   303.79175      382.9173       4231.3548      5229.1375     -702.31389    
     36400   306.66723      419.14959      4198.9002      5238.7351     -631.89632    
     36500   293.36458      406.42071      4248.2104      5248.3922     -658.11549    
     36600   295.77238      382.40285      4275.2559      5256.2932     -706.71637    
     36700   300.21172      419.65159      4237.0805      5264.3517     -631.46335    
     36800   300.71564      398.27725      4265.9619      5272.8786     -672.26085    
     36900   305.94379      388.11278      4272.2394      5279.5732     -695.14599    
     37000   291.24208      425.29765      4273.3528      5288.1157     -632.25137    
     37100   310.72606      391.89301      4277.6902      5298.4834     -689.65668    
     37200   302.14849      394.96392      4300.2652      5306.7686     -687.1942     
     37300   298.50546      417.38601      4293.1664      5314.7185     -651.14623    
     37400   303.10707      388.00064      4320.3144      5321.7947     -708.3074     
     37500   300.62805      408.91691      4314.933       5332.3121     -675.43811    
     37600   298.45281      412.51144      4322.0545      5338.6255     -670.09753    
     37700   300.15022      391.07178      4350.1242      5348.6911     -708.25636    
     37800   304.82411      414.96294      4324.947       5356.8648     -667.09551    
     37900   295.85784      403.48476      4362.3673      5364.6595     -694.14777    
     38000   309.94356      395.39367      4353.1754      5375.8855     -711.92448    
     38100   303.80678      417.81998      4350.3786      5383.0944     -670.66689    
     38200   304.3909       399.8175       4375.5593      5391.4549     -703.35274    
     38300   295.18592      390.48792      4411.275       5399.2104     -725.0936     
     38400   299.47722      414.37106      4387.9636      5408.4675     -679.08337    
     38500   296.55268      400.9447       4417.242       5418.4004     -703.60159    
     38600   303.11922      384.42992      4429.1823      5427.1164     -731.32383    
     38700   295.43002      415.60346      4424.4894      5438.0344     -680.10157    
     38800   312.65096      394.8628       4416.7145      5444.3734     -713.50752    
     38900   310.50434      383.81477      4440.1368      5452.4031     -736.88643    
     39000   298.50382      423.86488      4434.5222      5462.5499     -670.07534    
     39100   291.1585       389.18359      4492.9775      5471.4572     -732.94715    
     39200   305.76277      386.85839      4474.636       5480.3491     -734.7245     
     39300   295.54299      422.17728      4468.6013      5488.9487     -679.79663    
     39400   300.80822      379.8563       4509.4547      5498.1378     -754.7486     
     39500   297.94144      398.62115      4506.9462      5508.5919     -718.40806    
     39600   302.16425      412.46953      4492.16        5516.2009     -698.79727    
     39700   317.18776      380.69021      4502.1129      5524.7817     -755.45917    
     39800   307.41972      408.73353      4504.0378      5534.9796     -704.80884    
     39900   294.73242      400.83972      4545.2818      5542.6511     -729.93515    
     40000   299.73046      385.6813       4561.7437      5554.0705     -754.3747     
     40100   289.94538      408.6287       4566.1044      5561.5738     -713.20621    
     40200   302.3508       395.92572      4563.5354      5571.4101     -743.96319    
     40300   297.4782       386.73921      4590.9541      5579.7803     -761.13217    
     40400   293.6954       404.60191      4590.1738      5589.2064     -728.56464    
     40500   306.47424      401.3748       4578.6507      5600.3202     -735.203      
     40600   308.60838      382.74416      4598.7307      5606.089      -767.92969    
     40700   304.61102      405.82062      4595.2575      5617.6017     -726.03438    
     40800   304.2175       402.95493      4608.1362      5626.8183     -736.92735    
     40900   298.70216      376.5209       4654.4099      5635.495      -785.90698    
     41000   309.48967      413.56251      4606.3453      5646.3056     -718.22515    
     41100   292.89299      397.79933      4663.2059      5653.8118     -755.95542    
     41200   282.20369      379.93234      4713.3525      5664.4566     -787.74349    
     41300   304.95734      418.03094      4638.401       5673.6564     -717.0966     
     41400   302.00353      385.56413      4686.6655      5683.4757     -780.98997    
     41500   299.19558      390.00574      4696.8759      5692.4445     -770.45317    
     41600   293.741        414.47639      4692.4014      5701.4008     -734.21538    
     41700   303.54717      381.15536      4716.5287      5712.0544     -795.31085    
     41800   289.22084      396.83846      4739.9124      5722.1252     -765.31518    
     41900   295.37928      403.21972      4729.1044      5730.1629     -758.55666    
     42000   306.07121      382.08091      4739.133       5740.6929     -796.72414    
     42100   295.38898      403.25938      4748.8759      5749.9937     -764.39261    
     42200   296.99786      399.46909      4759.3793      5759.9632     -774.86879    
     42300   300.20407      381.73753      4780.7391      5770.0807     -805.47625    
     42400   298.73302      398.13718      4777.5582      5780.322      -775.36443    
     42500   306.66521      397.54059      4769.3263      5787.548      -774.30609    
     42600   292.21833      380.05098      4827.9973      5799.4895     -815.17533    
     42700   295.03668      403.36174      4810.126       5810.6331     -772.79591    
     42800   304.00165      405.12449      4796.4277      5816.8424     -771.11926    
     42900   307.44076      377.09367      4829.6314      5828.9759     -826.43043    
     43000   306.83922      405.26712      4811.8711      5838.1716     -770.60202    
     43100   303.05051      406.16603      4830.0116      5849.5428     -779.88303    
     43200   306.86828      376.51265      4860.2668      5857.8717     -833.7922     
     43300   299.7733       412.64539      4849.1011      5868.4787     -764.28858    
     43400   298.77546      399.00844      4874.6875      5878.4085     -798.5965     
     43500   297.92987      375.73854      4908.3566      5887.0963     -835.60788    
     43600   296.52488      416.63606      4881.9849      5898.7784     -763.77798    
     43700   301.84511      389.04158      4907.6244      5907.5914     -819.37715    
     43800   304.70079      375.86812      4924.4866      5917.06       -838.11512    
     43900   311.00761      413.44998      4885.8959      5928.816      -775.7279     
     44000   307.89998      382.25399      4932.1437      5937.578      -833.6251     
     44100   297.5426       385.09519      4959.2193      5946.5318     -832.78959    
     44200   303.16138      408.79922      4936.3353      5958.7241     -788.9979     
     44300   301.51672      378.29518      4980.3953      5968.9513     -844.02297    
     44400   305.70898      387.07852      4971.5716      5977.396      -833.07995    
     44500   294.59261      405.65223      4987.5188      5989.4176     -801.06422    
     44600   294.19368      380.11602      5025.8809      6001.4361     -856.39261    
     44700   295.21382      386.06492      5026.0474      6009.6163     -842.66973    
     44800   310.03081      411.87208      4980.5539      6019.9191     -793.57744    
     44900   299.41096      381.02567      5043.4009      6030.4254     -859.17083    
     45000   301.36608      384.05698      5045.2964      6039.3093     -850.32777    
     45100   307.34208      418.15061      5012.6259      6052.8277     -791.32864    
     45200   293.19321      377.04397      5090.8347      6061.293      -873.77425    
     45300   300.39094      391.29089      5073.2103      6072.4834     -843.7516     
     45400   304.54196      417.97683      5047.4605      6081.8212     -802.10818    
     45500   294.76295      368.75715      5128.5027      6093.8513     -894.08681    
     45600   291.95755      403.65774      5109.1405      6103.7116     -831.93006    
     45700   296.46923      406.48034      5107.2061      6113.7312     -827.31792    
     45800   319.31325      368.61524      5110.1042      6124.9999     -891.83277    
     45900   300.2581       415.72961      5113.1481      6136.5911     -815.62963    
     46000   297.74854      387.72048      5155.3983      6145.7529     -865.34567    
     46100   309.55797      374.78802      5155.1818      6156.5059     -887.40267    
     46200   299.19439      414.45179      5146.6889      6166.7011     -821.80244    
     46300   290.4601       376.79771      5212.6648      6177.3451     -891.11922    
     46400   310.42783      383.76234      5175.1476      6187.2066     -878.42985    
     46500   299.94993      407.63274      5182.0228      6196.7452     -833.92537    
     46600   312.51246      376.60249      5200.2618      6209.3801     -891.16487    
     46700   294.6227       378.76494      5245.0636      6220.1361     -893.31943    
     46800   296.31553      403.55079      5228.1773      6231.4618     -844.43417    
     46900   314.81237      384.96336      5220.232       6242.3662     -885.33765    
     47000   301.55564      373.88963      5267.3532      6251.5824     -904.09414    
     47100   296.04323      411.16506      5254.3003      6264.648      -838.97359    
     47200   300.18528      386.06082      5281.1575      6274.7844     -892.64166    
     47300   306.50125      377.71442      5286.8032      6284.8669     -903.71798    
     47400   293.3835       418.06495      5284.8111      6296.6755     -836.95818    
     47500   296.24306      374.01808      5334.8265      6308.4316     -917.6354     
     47600   315.13659      385.52041      5294.4528      6317.8002     -890.15114    
     47700   292.6164       416.94418      5320.1352      6329.3262     -846.333      
     47800   299.62116      364.81319      5369.5474      6340.7848     -940.71185    
     47900   307.92218      397.39007      5331.8821      6352.4974     -882.54492    
     48000   293.10575      404.42722      5365.3763      6363.0408     -870.27126    
     48100   293.72422      365.59316      5414.4939      6374.5761     -944.78084    
     48200   302.90167      403.714        5367.3641      6384.142      -877.65159    
     48300   305.66898      395.88777      5381.1475      6395.7002     -891.28861    
     48400   299.2553       370.11582      5433.2579      6409.0575     -945.51162    
     48500   307.2478       405.71996      5389.6846      6417.2649     -882.20568    
     48600   300.33241      395.59539      5426.8445      6430.3036     -901.2293     
     48700   291.68122      373.0503       5476.5268      6439.9311     -949.14217    
     48800   290.3617       398.66495      5467.4749      6453.8233     -899.28036    
     48900   304.92588      398.70671      5448.0471      6463.9146     -899.82206    
     49000   310.01292      373.69894      5472.2037      6473.3595     -949.81514    
     49100   306.07655      400.97508      5464.2484      6484.7132     -903.31427    
     49200   298.79517      400.84963      5492.1771      6497.7792     -905.15624    
     49300   301.83754      374.40573      5522.6836      6507.9995     -956.2497     
     49400   291.70653      406.70503      5522.9878      6520.0981     -903.63273    
     49500   303.82388      391.6882       5525.7309      6532.3495     -923.78092    
     49600   298.87914      372.71704      5565.0958      6542.7353     -964.2462     
     49700   310.29324      412.34789      5513.0839      6553.456      -890.22313    
     49800   294.21704      379.50713      5591.9339      6566.9275     -948.00714    
     49900   302.86668      373.86409      5589.2892      6576.1464     -963.90885    
     50000   305.94918      415.12338      5553.9622      6588.3175     -890.96492    
     50100   299.19805      372.34752      5624.2803      6602.1957     -970.39617    
     50200   302.27234      384.76597      5615.2823      6611.8384     -955.68982    
     50300   305.14537      412.57801      5593.1349      6623.318      -905.38804    
     50400   300.03207      369.25916      5660.0028      6636.5179     -984.61961    
     50500   301.53691      394.01157      5643.5527      6647.8659     -947.53783    
     50600   303.12798      405.65028      5639.1253      6658.2975     -923.92365    
     50700   303.49958      375.01523      5682.6379      6671.9271     -986.12228    
     50800   294.76722      395.97667      5689.3258      6681.9025     -954.27298    
     50900   303.86442      398.97365      5680.1331      6694.1192     -943.85126    
     51000   289.67935      383.50504      5738.3299      6708.1373     -982.58694    
     51100   304.87354      393.53004      5707.2639      6717.8488     -963.09466    
     51200   292.09261      399.34574      5739.0234      6729.5559     -954.84436    
     51300   300.95062      382.72728      5750.1555      6741.9978     -981.25148    
     51400   304.48648      389.53442      5747.4464      6753.2523     -970.11653    
     51500   295.11258      399.4424       5767.5104      6764.2518     -953.54901    
     51600   300.85388      377.73929      5789.7812      6776.4397     -992.54872    
     51700   288.6378       390.95722      5813.1467      6788.2982     -975.32976    
     51800   290.70687      403.86016      5810.1871      6802.4292     -950.97257    
     51900   309.47123      370.41563      5816.2302      6813.0063     -1007.3472    
     52000   291.81916      396.92115      5838.8651      6826.4195     -966.94583    
     52100   293.94155      396.66983      5846.3567      6837.9555     -963.85626    
     52200   295.1339       366.71166      5885.5534      6849.6073     -1022.7257    
     52300   294.68022      404.04157      5861.5682      6862.0337     -961.96894    
     52400   308.57867      388.66715      5859.2952      6872.5163     -985.59343    
     52500   304.10283      369.03423      5900.9589      6885.4881     -1027.6661    
     52600   297.86459      407.11212      5887.4866      6897.4677     -964.71014    
     52700   303.66752      382.92908      5911.4902      6909.0332     -1007.5093    
     52800   303.53622      377.77804      5929.5526      6921.6789     -1018.8002    
     52900   298.8089       403.36908      5926.9853      6935.1346     -974.02829    
     53000   288.2896       377.7235       5985.2855      6946.4985     -1022.7349    
     53100   305.78903      380.50537      5959.7888      6959.202      -1018.1087    
     53200   291.57515      400.4512       5981.1485      6971.7391     -988.34055    
     53300   307.92285      378.37049      5982.9789      6984.576      -1020.9979    
     53400   296.30864      380.06372      6015.4271      6995.2106     -1023.168     
     53500   297.42863      405.14569      6001.0863      7008.2186     -985.25574    
     53600   302.38511      382.76882      6026.8845      7021.6717     -1023.4795    
     53700   301.01366      377.76413      6047.4234      7034.4302     -1032.7938    
     53800   296.05378      406.89324      6040.1612      7046.2584     -981.99115    
     53900   309.4215       376.57828      6054.6805      7057.5186     -1039.267     
     54000   305.05088      378.67812      6075.2417      7071.3336     -1038.3209    
     54100   308.46637      408.5808       6049.6459      7082.5534     -986.51425    
     54200   296.62998      370.22983      6126.7331      7097.3331     -1062.6507    
     54300   299.51609      386.84763      6114.518       7107.5772     -1033.795     
     54400   299.16432      407.78781      6107.3755      7120.6629     -1001.9818    
     54500   315.21296      362.68691      6133.3822      7134.0507     -1078.6353    
     54600   292.6969       399.46336      6156.0403      7147.9134     -1019.2744    
     54700   298.07401      401.24052      6153.7572      7158.2906     -1022.5934    
     54800   298.02107      364.46318      6204.7942      7172.443      -1087.4779    
     54900   304.51861      408.80601      6159.6259      7184.7684     -1014.5484    
     55000   306.40653      392.9304       6183.5684      7196.6564     -1040.5525    
     55100   292.35982      370.23701      6250.146       7212.1105     -1079.8142    
     55200   301.42064      411.86438      6200.1574      7222.0881     -1014.8308    
     55300   314.76917      384.87681      6213.547       7235.5072     -1057.6837    
     55400   296.8477       378.39043      6269.3292      7248.5305     -1075.5148    
     55500   286.51897      404.73537      6276.9817      7261.6229     -1037.9838    
     55600   292.30215      384.65797      6297.3398      7273.6085     -1063.8532    
     55700   305.70735      383.11367      6284.6885      7286.5447     -1069.9034    
     55800   297.3542       399.47092      6299.7919      7301.0988     -1047.4003    
     55900   304.79754      388.73899      6309.2089      7314.849      -1062.468     
     56000   310.74156      380.6432       6317.3819      7326.9567     -1082.3929    
     56100   298.17405      399.69353      6335.3377      7338.5266     -1051.5099    
     56200   291.23632      395.44253      6368.7503      7353.6464     -1064.64      
     56300   300.34321      376.02279      6381.3712      7365.2796     -1097.5313    
     56400   303.44707      404.23822      6359.793       7378.1989     -1050.38      
     56500   295.74147      393.08147      6400.4237      7392.0771     -1080.5359    
     56600   306.6611       375.72792      6407.9665      7404.3673     -1103.605     
     56700   301.9302       411.83024      6396.5412      7419.4691     -1047.5025    
     56800   299.86548      383.37717      6441.0399      7431.3358     -1098.1257    
     56900   301.10758      379.55995      6454.2884      7443.2811     -1107.2751    
     57000   289.67476      410.25303      6461.704       7458.25       -1062.3718    
     57100   305.00076      375.472        6477.8433      7470.6277     -1114.8378    
     57200   302.72614      384.50453      6487.7908      7485.0039     -1102.2619    
     57300   288.23948      404.35918      6510.3447      7498.092      -1072.9221    
     57400   296.26672      377.05236      6535.7697      7512.457      -1120.1459    
     57500   305.4831       393.21426      6511.4919      7522.9948     -1094.9211    
     57600   297.58749      401.14991      6535.1299      7538.588      -1080.7833    
     57700   306.21832      378.85828      6551.6827      7550.3177     -1122.788     
     57800   297.15071      392.70397      6570.092       7564.2201     -1103.4235    
     57900   293.47208      401.73375      6582.094       7577.8064     -1085.8494    
     58000   301.53277      383.64944      6598.754       7592.6968     -1121.5627    
     58100   311.00865      385.46233      6589.5845      7604.519      -1114.9922    
     58200   291.5052       404.96386      6625.062       7620.0237     -1091.6759    
     58300   291.78142      382.9092       6659.1284      7632.5945     -1135.138     
     58400   308.27817      382.09983      6639.4372      7645.4828     -1131.3831    
     58500   302.34074      407.91404      6639.1188      7658.9614     -1092.4874    
     58600   301.43762      375.35551      6687.4514      7672.9076     -1148.8196    
     58700   295.72341      385.3855       6704.22        7688.1408     -1131.8689    
     58800   304.24021      407.15281      6677.8491      7700.775      -1094.7002    
     58900   303.28478      366.35362      6735.3768      7715.5697     -1166.9287    
     59000   293.55576      392.04558      6742.9842      7729.1778     -1126.565     
     59100   316.50298      402.59515      6697.2533      7740.441      -1104.5636    
     59200   281.27921      362.8619       6824.95        7757.1126     -1184.6816    
     59300   290.88132      401.44614      6780.2686      7770.4498     -1120.1682    
     59400   298.69988      396.29947      6781.0006      7781.8596     -1122.8242    
     59500   305.1415       366.65218      6812.7707      7797.0202     -1180.6246    
     59600   296.35235      408.08445      6803.6659      7811.5586     -1113.0943    
     59700   291.66428      389.84068      6844.2482      7824.4087     -1142.995     
     59800   302.70237      374.55471      6851.1118      7838.327      -1175.0046    
     59900   307.23174      408.89284      6821.8404      7852.5611     -1118.2022    
     60000   289.4014       385.6665       6894.9125      7866.3187     -1160.2855    
     60100   291.00538      384.06529      6909.5268      7882.5783     -1169.8326    
     60200   294.57771      403.78254      6895.1424      7895.1414     -1138.5388    
     60300   301.85212      386.63486      6910.3872      7907.9617     -1169.7031    
     60400   309.35304      388.17791      6909.3109      7923.6101     -1168.7361    
     60500   295.81487      402.56297      6934.6         7935.8834     -1150.2903    
     60600   290.42522      386.93584      6976.8531      7951.6008     -1175.3305    
     60700   310.48604      383.04534      6953.7192      7965.179      -1179.9061    
     60800   298.32808      406.42563      6968.8056      7979.0383     -1153.2367    
     60900   293.03057      388.81042      7011.1709      7993.0664     -1182.8157    
     61000   296.14888      383.56293      7026.3814      8009.3408     -1193.7177    
     61100   292.46465      407.49668      7020.7486      8020.185      -1153.0295    
     61200   300.54263      387.00961      7041.8455      8037.1443     -1185.83      
     61300   303.96825      381.43132      7054.0506      8050.7046     -1197.1551    
     61400   288.11659      409.65227      7072.6506      8065.4422     -1161.607     
     61500   298.44024      378.14242      7095.7844      8077.9609     -1203.8968    
     61600   300.44273      387.82878      7097.9035      8093.8193     -1192.6879    
     61700   302.65332      407.25646      7087.3496      8107.1673     -1166.8975    
     61800   296.78591      376.81763      7146.0663      8123.5697     -1213.2586    
     61900   305.84912      396.81214      7121.6622      8137.5038     -1187.1823    
     62000   308.00751      402.86936      7124.8115      8151.0788     -1179.2643    
     62100   296.94607      375.35         7189.9465      8166.3064     -1222.0388    
     62200   295.51034      396.27416      7186.4287      8180.807      -1193.381     
     62300   313.72397      397.2134       7161.4388      8193.6202     -1193.6253    
     62400   294.01737      383.33021      7230.95        8209.3626     -1220.0974    
     62500   320.30176      397.44679      7176.4249      8222.1529     -1199.5106    
     62600   296.13496      396.45872      7243.5978      8239.4248     -1204.8664    
     62700   294.11859      391.4857       7267.6852      8254.4581     -1213.8116    
     62800   298.80823      386.72013      7276.0878      8267.5868     -1226.3302    
     62900   306.61987      400.18124      7262.8422      8283.6129     -1204.5513    
     63000   294.89297      395.79104      7305.2649      8297.9105     -1215.7188    
     63100   307.0849       379.88995      7309.6061      8311.0266     -1240.9373    
     63200   306.99972      400.70252      7304.2193      8326.2801     -1206.9851    
     63300   299.11053      390.12915      7345.0511      8340.571      -1229.1689    
     63400   306.41303      385.59888      7349.5756      8355.3453     -1237.8286    
     63500   301.35284      408.43713      7353.5592      8371.9255     -1206.1149    
     63600   300.73528      382.74304      7393.7479      8385.1701     -1246.4442    
     63700   298.42685      392.26303      7403.6252      8399.8953     -1237.6469    
     63800   306.08686      407.26027      7387.4353      8414.2062     -1213.6195    
     63900   303.49483      376.62538      7440.1574      8431.0472     -1260.1761    
     64000   298.1376       398.25682      7444.0477      8445.7261     -1230.8545    
     64100   300.89978      402.74586      7448.9837      8460.7417     -1224.5366    
     64200   291.78852      378.20346      7507.3986      8476.1733     -1264.542     
     64300   307.61324      401.9198       7464.6731      8489.1929     -1232.9485    
     64400   290.66427      399.88555      7517.9523      8506.1336     -1241.8301    
     64500   288.95828      378.34998      7557.278       8520.4708     -1272.4384    
     64600   305.04947      396.25703      7521.9198      8535.5878     -1245.7762    
     64700   295.55608      393.93109      7558.676       8550.8037     -1251.0434    
     64800   313.1366       383.265        7548.8893      8565.9334     -1267.2041    
     64900   304.06567      396.89769      7569.4703      8581.7878     -1252.8585    
     65000   294.32034      395.0674       7604.613       8595.376      -1257.6706    
     65100   299.75379      382.33471      7622.0863      8611.1137     -1279.3313    
     65200   289.92246      396.40855      7644.23        8627.4329     -1267.3147    
     65300   298.76652      398.93929      7637.6866      8641.3204     -1258.4875    
     65400   297.71768      382.64663      7672.3429      8657.5612     -1289.7247    
     65500   293.11213      401.0094       7678.2034      8672.463      -1264.2919    
     65600   292.0332       404.54814      7692.4596      8688.0742     -1262.2615    
     65700   311.30499      376.62864      7695.7518      8702.4524     -1303.1455    
     65800   301.23757      409.31139      7699.0752      8718.0824     -1258.0117    
     65900   293.29361      406.90618      7733.0048      8733.5285     -1270.9028    
     66000   306.84313      377.71041      7750.6969      8749.4486     -1311.994     
     66100   302.19186      413.31163      7740.7278      8765.6667     -1261.1126    
     66200   299.88279      399.27936      7773.6898      8779.923      -1286.663     
     66300   303.75543      381.78249      7799.3042      8795.8786     -1312.5569    
     66400   287.82272      420.06008      7808.4347      8811.0393     -1267.9049    
     66500   299.75074      392.11592      7827.2814      8826.0838     -1305.9618    
     66600   302.55234      386.17375      7845.1671      8843.6977     -1312.5698    
     66700   287.66885      417.63421      7857.3946      8857.2619     -1274.6712    
     66800   302.3757       383.44112      7878.1712      8873.6117     -1321.383     
     66900   313.55508      391.58518      7862.9921      8889.2033     -1311.8412    
     67000   286.87164      410.29573      7913.9786      8904.8939     -1287.2064    
     67100   300.12635      381.79235      7930.0549      8919.294      -1325.8776    
     67200   310.88285      394.72289      7912.9143      8936.8548     -1311.0869    
     67300   302.70516      404.34112      7935.5064      8952.5137     -1296.818     
     67400   295.44412      384.2992       7984.9851      8967.2543     -1331.4514    
     67500   297.34571      395.28854      7987.5923      8984.6996     -1315.8386    
     67600   293.24203      401.05534      8003.6081      8998.1766     -1310.8607    
     67700   311.03941      387.50132      7998.4365      9015.4723     -1328.7647    
     67800   299.98691      394.26258      8030.0031      9031.4302     -1323.798     
     67900   305.77645      401.24127      8026.0877      9046.2113     -1313.3786    
     68000   307.07814      392.22865      8048.422       9062.1676     -1333.9079    
     68100   307.3028       392.67151      8064.536       9079.1792     -1336.773     
     68200   295.97867      407.00368      8089.2017      9095.2574     -1315.0751    
     68300   314.5627       388.50052      8084.6699      9109.8359     -1344.4763    
     68400   308.99007      391.78884      8107.8967      9125.0722     -1347.665     
     68500   289.93403      410.94443      8145.883       9143.6452     -1322.2355    
     68600   289.84034      389.96872      8182.6915      9159.2884     -1357.0125    
     68700   305.2652       395.46321      8161.3765      9174.6873     -1347.5285    
     68800   307.57661      412.26494      8155.462       9190.2528     -1327.7387    
     68900   289.61951      388.89865      8235.0073      9210.0872     -1367.7988    
     69000   302.83549      405.44064      8203.8139      9222.1845     -1346.0933    
     69100   296.11015      410.72567      8230.5877      9240.6314     -1341.4603    
     69200   303.97015      385.41484      8255.6272      9256.2685     -1375.074     
     69300   298.73437      409.73383      8257.5414      9271.9046     -1344.8326    
     69400   298.33387      404.02819      8279.545       9287.392      -1354.3122    
     69500   289.73846      390.35977      8329.0181      9305.7998     -1379.5533    
     69600   310.13745      404.82813      8286.9332      9319.4703     -1355.8765    
     69700   298.10557      401.51769      8332.8965      9337.7709     -1361.9015    
     69800   305.73987      397.81564      8337.2655      9353.8894     -1367.0786    
     69900   307.41931      400.0403       8345.6731      9367.9208     -1368.598     
     70000   311.69343      398.89934      8356.1531      9385.9106     -1370.7046    
     70100   293.88915      404.58707      8404.1726      9403.5825     -1364.0695    
     70200   299.62334      392.54723      8419.5425      9418.5184     -1387.73      
     70300   305.55399      401.15956      8414.6685      9434.2601     -1374.8935    
     70400   302.72521      404.61814      8436.4203      9453.7452     -1372.7704    
     70500   305.69339      388.86033      8461.0571      9468.6317     -1397.8106    
     70600   308.30614      407.53001      8453.2646      9484.797      -1374.0079    
     70700   300.62181      394.71863      8498.0656      9501.2337     -1395.7521    
     70800   301.75227      388.30523      8517.5583      9516.6011     -1410.7708    
     70900   303.36005      411.36494      8508.7601      9534.1167     -1374.4155    
     71000   290.6608       388.19004      8576.0817      9552.5605     -1414.0158    
     71100   288.73425      393.88304      8587.8657      9566.1382     -1411.8307    
     71200   304.9557       414.52294      8552.5106      9584.2548     -1375.4444    
     71300   303.98537      390.34264      8596.7531      9602.353      -1419.178     
     71400   301.68732      399.60517      8608.8448      9619.056      -1407.1902    
     71500   302.56219      412.85659      8608.4155      9633.6489     -1387.9773    
     71600   295.72243      397.42611      8655.9236      9651.8831     -1419.7783    
     71700   296.31215      404.34018      8665.7307      9669.7978     -1409.4798    
     71800   286.27069      409.68802      8697.4793      9686.5706     -1406.6264    
     71900   301.13551      400.06252      8692.7441      9702.2959     -1420.0692    
     72000   301.32939      404.35523      8704.7903      9719.0272     -1417.6976    
     72100   302.2605       406.02495      8718.942       9736.7331     -1412.5687    
     72200   293.12036      398.72008      8762.0533      9754.0402     -1429.7302    
     72300   301.46173      405.02492      8754.0753      9769.2497     -1423.3808    
     72400   293.86077      408.69826      8784.4277      9787.8913     -1417.7194    
     72500   286.33916      399.35911      8825.6094      9804.5104     -1442.4205    
     72600   303.87081      399.50842      8807.5615      9822.0953     -1439.4164    
     72700   297.74002      416.24362      8818.6396      9837.5001     -1411.4557    
     72800   288.21663      397.86852      8874.487       9855.6974     -1450.594     
     72900   302.15006      395.35852      8865.4356      9872.3368     -1449.0952    
     73000   290.84931      415.12665      8886.2718      9890.0687     -1418.7592    
     73100   311.48767      390.2908       8884.3637      9905.0962     -1458.5798    
     73200   303.32936      397.22726      8912.9086      9924.0654     -1449.9729    
     73300   298.16299      412.77114      8925.9302      9942.1743     -1428.4869    
     73400   293.07595      389.68416      8976.0273      9958.8884     -1470.5693    
     73500   308.2698       407.19162      8944.7677      9975.8881     -1441.3643    
     73600   304.70212      413.37685      8963.5455      9993.6303     -1436.3533    
     73700   304.79036      387.22221      9005.2497      10009.358     -1482.1377    
     73800   301.67014      414.77458      9002.1272      10027.473     -1438.18      
     73900   314.53333      408.25918      9000.3914      10045.257     -1449.7492    
     74000   298.8525       390.17114      9066.8376      10061.877     -1490.2699    
     74100   303.00795      417.87989      9048.328       10079.487     -1444.538     
     74200   298.42375      409.00136      9084.6551      10097.657     -1462.0061    
     74300   304.2771       393.72549      9103.8039      10113.377     -1489.4227    
     74400   295.82348      418.11126      9113.4133      10130.262     -1459.4576    
     74500   282.06402      405.96375      9174.0619      10150.915     -1479.9017    
     74600   301.30053      403.81643      9153.8079      10167.448     -1487.0691    
     74700   304.10597      419.51623      9150.0452      10185.063     -1463.4914    
     74800   304.39717      401.77276      9183.9186      10201.782     -1492.8418    
     74900   285.92946      406.52973      9233.2474      10218.49      -1493.575     
     75000   296.25939      420.66144      9216.0217      10236.303     -1466.1858    
     75100   301.7627       399.89545      9244.5704      10255.225     -1497.8082    
     75200   291.4785       402.92133      9280.8626      10273.728     -1501.8223    
     75300   287.12803      418.54462      9290.3182      10290.001     -1476.3054    
     75400   305.98318      404.8836       9284.6983      10308.883     -1496.5509    
     75500   294.01106      400.25427      9330.9367      10326.261     -1510.8193    
     75600   292.68472      412.91291      9336.727       10342.025     -1486.9607    
     75700   294.03781      406.78648      9360.6175      10362.528     -1503.1968    
     75800   301.26561      399.36504      9370.5535      10379.671     -1513.7826    
     75900   300.42206      416.975        9370.3281      10395.348     -1487.4348    
     76000   304.07314      402.7865       9396.066       10414.287     -1517.477     
     76100   308.57354      398.43162      9409.19        10432.165     -1519.606     
     76200   301.22674      426.50274      9412.6078      10448.784     -1483.6717    
     76300   299.11795      396.60508      9466.199       10468.21      -1531.3039    
     76400   310.68411      399.40697      9456.9476      10485.17      -1527.7959    
     76500   298.68507      427.37166      9472.0777      10503.979     -1487.7133    
     76600   299.39023      391.13153      9524.6233      10521.712     -1546.4209    
     76700   306.87512      405.47319      9512.4577      10539.037     -1532.2377    
     76800   293.74417      429.6397       9531.9963      10556.165     -1497.9531    
     76900   297.88395      393.36495      9580.2515      10576.525     -1557.8352    
     77000   295.86876      416.15646      9578.8606      10593.847     -1528.2488    
     77100   306.16061      424.81146      9567.5847      10612.056     -1511.7116    
     77200   300.05173      393.32754      9630.7515      10631.375     -1565.6749    
     77300   300.28754      419.66756      9621.6274      10649.068     -1528.8207    
     77400   305.66834      418.7094       9627.9271      10665.3       -1525.3189    
     77500   296.77806      401.40209      9683.2786      10685.351     -1564.5246    
     77600   288.7832       422.40123      9696.2673      10703.157     -1534.8851    
     77700   301.93109      418.98545      9691.8105      10721.895     -1539.3107    
     77800   300.7212       402.16372      9728.7978      10739.612     -1564.5173    
     77900   289.24798      416.78969      9756.8595      10759.078     -1549.2512    
     78000   297.79923      413.10755      9760.8778      10776.722     -1549.374     
     78100   301.40942      407.13404      9778.568       10795.746     -1564.2449    
     78200   297.63546      410.09184      9800.0003      10812.497     -1560.92      
     78300   301.76237      413.49201      9807.6672      10831.917     -1551.8057    
     78400   292.54577      406.89032      9851.5436      10850.538     -1569.4742    
     78500   290.58598      401.8228       9878.6286      10868.589     -1578.2992    
     78600   299.32377      413.55666      9868.6406      10888.02      -1557.8002    
     78700   311.09888      402.67962      9872.8264      10905.161     -1578.9261    
     78800   304.27133      406.34587      9901.544       10923.726     -1578.9789    
     78900   291.12824      418.28764      9935.633       10943.155     -1564.1308    
     79000   284.23946      397.44666      9986.8812      10959.62      -1600.6959    
     79100   296.77075      409.91387      9968.6575      10979.227     -1579.6353    
     79200   297.43291      416.99129      9980.5198      10999.506     -1571.1141    
     79300   298.5451       402.33911      10011.051      11017.636     -1600.5006    
     79400   295.43603      418.44028      10018.257      11034.651     -1573.4451    
     79500   323.73589      416.6025       9982.3426      11054.177     -1576.353     
     79600   301.4425       404.47605      10060.13       11074.717     -1605.0107    
     79700   295.32332      423.35205      10070.367      11091.445     -1579.1543    
     79800   296.40518      415.17746      10096.993      11112.086     -1596.3327    
     79900   296.93892      414.55504      10113.727      11129.277     -1603.4771    
     80000   294.46353      423.8701       10128.101      11147.956     -1594.3879    
     80100   305.53305      410.33503      10138.754      11167.479     -1612.744     
     80200   295.11117      419.34582      10168.394      11185.036     -1605.6161    
     80300   297.15348      421.329        10181.654      11204.413     -1604.0628    
     80400   301.56336      408.18755      10205.987      11224.53      -1617.3333    
     80500   291.79798      423.07806      10229.097      11242.765     -1603.2164    
     80600   307.47653      415.69947      10222.98       11261.002     -1611.1982    
     80700   300.41108      412.02613      10260.556      11280.605     -1620.7041    
     80800   298.96831      424.52421      10270.065      11299.692     -1610.428     
     80900   293.89502      411.07039      10313.718      11319.623     -1627.4557    
     81000   294.25843      413.3128       10329.243      11338.127     -1627.2991    
     81100   316.27433      417.88968      10297.505      11355.525     -1616.0438    
     81200   301.62526      409.32466      10355.488      11375.293     -1631.8671    
     81300   304.53128      414.1379       10364.821      11395.321     -1628.3056    
     81400   303.94483      418.26426      10380.594      11414.034     -1623.6282    
     81500   307.56655      411.7238       10398.741      11432.971     -1635.961     
     81600   298.05818      417.53257      10432.345      11453.138     -1636.8235    
     81700   300.71275      414.27713      10449.975      11472.886     -1639.4024    
     81800   300.62308      417.17122      10465.27       11490.893     -1638.4725    
     81900   302.52902      415.14494      10484.367      11511.821     -1647.0719    
     82000   309.90698      410.41567      10492.21       11529.868     -1652.2973    
     82100   299.59442      421.55385      10520.911      11548.834     -1643.3005    
     82200   311.52317      415.1234       10522.383      11568.02      -1653.8889    
     82300   295.27433      414.07453      10576.012      11587.713     -1662.4142    
     82400   307.5383       424.82756      10559.003      11606.279     -1648.4516    
     82500   303.10398      416.82238      10596.315      11626.611     -1664.0758    
     82600   303.7403       420.61858      10608.992      11644.372     -1659.3129    
     82700   299.10848      429.94313      10630.246      11665.576     -1653.4943    
     82800   293.87685      416.26767      10673.624      11684.689     -1679.7272    
     82900   300.03246      426.40448      10670.997      11704.658     -1661.9455    
     83000   302.99364      429.36587      10681.646      11724.262     -1660.6882    
     83100   296.7402       415.82132      10727.96       11744.374     -1684.631     
     83200   300.29177      430.49186      10723.959      11762.232     -1665.5685    
     83300   319.2234       424.1834       10713.023      11783.305     -1674.1105    
     83400   300.24462      422.46683      10773.332      11803.485     -1685.8449    
     83500   303.79066      433.11369      10774.519      11822.496     -1668.9451    
     83600   290.76609      418.99315      10834.403      11841.898     -1691.8085    
     83700   286.2312       426.07692      10857.274      11862.674     -1687.8911    
     83800   307.90906      426.86913      10828.778      11878.846     -1681.3882    
     83900   304.91015      410.71479      10873.617      11901.461     -1706.61      
     84000   296.35444      425.23036      10895.928      11920.971     -1689.1413    
     84100   299.26165      415.76396      10918.233      11939.693     -1694.8495    
     84200   311.40621      410.76868      10919.567      11960.612     -1706.5716    
     84300   302.65673      425.75575      10942.671      11980.995     -1690.0813    
     84400   300.94454      410.27273      10980.486      11999.862     -1712.5346    
     84500   293.49462      418.98036      11006.986      12019.991     -1707.1012    
     84600   305.59491      432.47847      10989.732      12040.725     -1688.6437    
     84700   287.15527      408.96507      11070.02       12060.179     -1728.0863    
     84800   300.67411      419.67582      11052.899      12081.13      -1712.4962    
     84900   295.64658      430.7124       11071.197      12100.289     -1701.117     
     85000   286.60531      413.9643       11127.043      12121.088     -1732.4916    
     85100   303.13727      428.36752      11098.663      12140.572     -1713.3524    
     85200   300.91353      430.12972      11121.896      12161.065     -1716.3369    
     85300   295.02425      422.32814      11159.859      12179.307     -1733.1549    
     85400   307.10366      432.79219      11146.298      12200.659     -1719.7209    
     85500   295.77849      431.53288      11191.043      12221.222     -1729.511     
     85600   299.2928       425.83829      11209.109      12240.707     -1738.022     
     85700   313.13076      433.22636      11193.582      12260.576     -1724.7002    
     85800   300.0188       433.37012      11240.945      12281.544     -1729.6624    
     85900   305.86605      425.07973      11256.162      12300.306     -1739.7161    
     86000   297.07537      427.18122      11293.977      12322.43      -1748.816     
     86100   312.35524      434.97822      11274.029      12341.205     -1733.6655    
     86200   297.92763      430.70931      11328.948      12362.654     -1743.1517    
     86300   299.9157       423.09541      11353.121      12383.237     -1758.835     
     86400   296.30694      434.95775      11366.75       12401.424     -1742.0597    
     86500   297.2595       428.45237      11393.504      12423.601     -1752.6595    
     86600   296.11832      424.73455      11420.203      12444.272     -1765.1023    
     86700   308.55688      438.3998       11400.274      12463.184     -1742.2559    
     86800   289.00761      422.60639      11478.226      12485.775     -1765.5521    
     86900   290.62278      418.75566      11499.134      12506.102     -1777.6423    
     87000   293.52064      441.76932      11490.065      12525.911     -1743.186     
     87100   309.10096      419.02028      11502.153      12546.784     -1776.6198    
     87200   291.28937      419.22266      11558.4        12567.184     -1780.9238    
     87300   305.42318      444.12024      11525.617      12587.904     -1745.1951    
     87400   292.34         417.29063      11600.455      12609.433     -1788.3925    
     87500   300.21827      422.24579      11599.418      12629.297     -1787.7134    
     87600   300.91248      437.9265       11601.846      12648.811     -1759.4894    
     87700   305.79338      412.93554      11638.415      12670.267     -1795.6391    
     87800   291.81486      429.84879      11671.845      12692.318     -1782.3297    
     87900   300.81923      433.41953      11669.661      12711.93      -1772.6277    
     88000   285.51882      416.71331      11738.111      12732.706     -1805.2764    
     88100   288.47189      439.7838       11731.223      12754.865     -1782.6857    
     88200   291.58033      437.68574      11746.396      12774.232     -1779.2147    
     88300   303.48414      424.45578      11756.663      12795.362     -1806.3818    
     88400   285.89263      438.81943      11798.969      12816.426     -1794.751     
     88500   299.70971      440.56623      11790.903      12838.072     -1789.087     
     88600   298.68622      434.44015      11819.177      12858.149     -1806.0215    
     88700   302.74168      437.92976      11828.124      12878.794     -1805.4498    
     88800   284.11746      437.48045      11887.162      12899.688     -1806.9024    
     88900   298.29006      435.24265      11882.306      12921.279     -1811.6064    
     89000   294.19683      437.19292      11908.847      12941.485     -1811.051     
     89100   306.63585      440.67251      11900.607      12961.901     -1801.9728    
     89200   298.17297      434.23483      11946.685      12984.413     -1823.5294    
     89300   309.24456      430.48824      11948.855      13005.245     -1820.2034    
     89400   296.75418      445.36464      11978.694      13024.68      -1798.0258    
     89500   298.1239       430.21679      12013.818      13047.429     -1830.3649    
     89600   296.11513      428.95646      12038.39       13066.674     -1832.9944    
     89700   295.99085      445.31024      12045.411      13089.797     -1807.0773    
     89800   305.80111      425.42562      12065.944      13110.302     -1838.3107    
     89900   291.61756      425.61152      12117.201      13133.038     -1840.2606    
     90000   311.41892      441.34312      12080.364      13152.01      -1817.8395    
     90100   308.25687      426.00983      12126.042      13175.955     -1848.9209    
     90200   307.44555      433.42349      12138.298      13193.982     -1836.9386    
     90300   286.08103      447.89742      12191.497      13218.413     -1824.5423    
     90400   297.41515      421.04518      12215.299      13238.303     -1866.7818    
     90500   302.69074      438.17308      12208.264      13259.075     -1843.1219    
     90600   297.58769      452.18334      12226.284      13280.776     -1828.0709    
     90700   295.83332      427.11249      12276.824      13302.694     -1869.1052    
     90800   299.66437      436.38815      12279.614      13322.514     -1855.7426    
     90900   297.91556      447.53982      12296.088      13346.6       -1841.3885    
     91000   296.38301      427.01613      12339.473      13366.359     -1873.6434    
     91100   303.09774      438.84626      12335.229      13387.536     -1859.5294    
     91200   301.59953      448.89053      12351.346      13410.665     -1849.4824    
     91300   306.72068      434.37142      12375.865      13431.03      -1875.0869    
     91400   299.18223      450.18544      12396.232      13451.953     -1858.0683    
     91500   285.15338      452.7839       12445.465      13475.391     -1856.3693    
     91600   300.28829      438.42227      12449.728      13495.925     -1883.3239    
     91700   314.73393      442.01342      12439.372      13518.397     -1873.0669    
     91800   305.19236      454.33607      12467.853      13539.889     -1859.5672    
     91900   300.13501      440.25994      12513.659      13561.383     -1888.188     
     92000   292.09039      436.56021      12555.194      13582.936     -1892.7328    
     92100   300.68327      451.12764      12545.563      13605.264     -1871.6715    
     92200   291.41975      444.20951      12592.611      13626.645     -1888.6369    
     92300   296.70887      434.95939      12612.897      13648.386     -1900.1514    
     92400   300.22829      457.06803      12605.851      13670.572     -1873.3009    
     92500   304.1823       444.43514      12631.579      13691.67      -1895.7443    
     92600   297.48108      431.74431      12679.774      13713.611     -1908.0181    
     92700   298.73263      456.57858      12673.636      13734.841     -1872.713     
     92800   298.47014      435.13406      12718.7        13757.929     -1909.8874    
     92900   300.19964      426.85443      12746.098      13780.548     -1921.2995    
     93000   295.98296      455.19624      12747.826      13802.083     -1880.6098    
     93100   305.36742      429.70813      12777.31       13825.072     -1919.8108    
     93200   306.10479      428.84114      12796.099      13844.487     -1924.2593    
     93300   303.3441       454.23176      12798.292      13866.483     -1891.279     
     93400   294.66643      430.14201      12863.525      13890.063     -1931.196     
     93500   303.08431      445.04466      12854.397      13912.875     -1912.7983    
     93600   306.37849      460.76015      12851.583      13932.444     -1898.3301    
     93700   286.40461      437.64075      12940.37       13957.685     -1940.2664    
     93800   294.65543      447.19445      12935.371      13978.939     -1923.443     
     93900   291.35901      460.55411      12950.05       14000.306     -1911.5148    
     94000   303.50583      441.0132       12967.699      14022.999     -1941.6529    
     94100   302.58881      451.33797      12982.525      14046.294     -1930.442     
     94200   295.3963       454.26665      13016.13       14068.27      -1930.3305    
     94300   308.36794      445.97311      13020.67       14090.771     -1940.7565    
     94400   295.42064      450.03257      13064.704      14112.659     -1940.2647    
     94500   301.10695      456.08236      13069.357      14134.871     -1940.7016    
     94600   302.00194      452.94815      13092.059      14156.25      -1943.7144    
     94700   296.87941      454.95403      13125.08       14180.909     -1942.6463    
     94800   297.24045      454.71956      13145.221      14201.546     -1945.5305    
     94900   298.58746      452.57905      13167.483      14224.394     -1954.3519    
     95000   297.41503      445.09039      13200.756      14247.805     -1961.2185    
     95100   293.65062      453.09392      13221.018      14268.452     -1953.2869    
     95200   307.69453      454.55632      13212.734      14290.055     -1949.9755    
     95300   300.40998      443.2986       13263.145      14314.465     -1969.2211    
     95400   301.65312      451.33038      13274.962      14336.829     -1961.0721    
     95500   293.46106      453.84438      13311.061      14358.862     -1961.8331    
     95600   293.62661      443.59824      13344.178      14382.068     -1975.3236    
     95700   295.92305      456.5495       13349.441      14404.93      -1962.2368    
     95800   301.73195      451.25284      13363.799      14425.748     -1972.6995    
     95900   311.48399      442.38519      13377.319      14450.138     -1983.4302    
     96000   308.60941      459.71308      13388.375      14472.704     -1960.6255    
     96100   287.48352      449.55836      13463.545      14494.961     -1981.5209    
     96200   299.54927      440.90962      13471.037      14518.225     -1995.8663    
     96300   301.86918      462.18372      13467.072      14540.23      -1966.9784    
     96400   297.36864      447.03203      13514.585      14563.482     -1991.9441    
     96500   298.22755      443.17374      13539.105      14585.882     -2002.3569    
     96600   300.51309      460.44398      13540.908      14609.581     -1981.5723    
     96700   288.93537      442.49347      13604.781      14632.071     -2008.0858    
     96800   301.15221      453.27377      13592.399      14655.196     -1999.0977    
     96900   298.66602      467.10992      13607.76       14679.361     -1982.388     
     97000   300.1517       445.55431      13647.378      14700.43      -2016.3486    
     97100   308.30103      458.0888       13641.963      14724.043     -2001.8554    
     97200   292.42073      467.55333      13688.324      14747.728     -1992.9411    
     97300   304.69818      447.69216      13705.501      14769.893     -2021.6307    
     97400   294.2335       461.04395      13737.717      14794.281     -2013.4974    
     97500   311.70497      463.52799      13721.345      14815.755     -2004.2699    
     97600   293.56726      453.97254      13789.922      14838.066     -2023.3721    
     97700   292.20172      468.62769      13802.823      14862.858     -2011.7281    
     97800   299.09027      465.32051      13814.79       14885.46      -2017.1225    
     97900   296.46439      454.55311      13855.017      14909.605     -2033.6968    
     98000   301.55701      461.58849      13859.33       14931.261     -2022.5162    
     98100   294.02182      456.2327       13903.715      14955.039     -2025.6181    
     98200   304.05799      454.19289      13907.554      14977.151     -2033.2541    
     98300   301.52338      453.48666      13937.128      15000.889     -2037.8954    
     98400   303.04152      452.70974      13958.693      15024.749     -2032.8821    
     98500   314.40054      457.08791      13955.604      15049.03      -2034.9185    
     98600   295.96298      453.1476       14018.872      15071.04      -2049.6702    
     98700   298.29424      454.58131      14035.65       15093.97      -2041.7693    
     98800   294.92202      453.31351      14067.527      15117.754     -2048.3248    
     98900   309.10244      457.90668      14059.267      15142.787     -2048.0137    
     99000   300.7127       465.34849      14090.127      15164.109     -2038.1892    
     99100   310.04963      449.59293      14111.718      15188.842     -2062.3488    
     99200   296.43027      452.89727      14158.969      15211.832     -2062.3398    
     99300   306.21123      468.19252      14147.331      15235.286     -2037.7779    
     99400   297.21085      455.70783      14202.705      15259.959     -2067.4316    
     99500   292.68262      457.58249      14232.999      15282.962     -2072.2728    
     99600   292.92127      473.53905      14239.519      15305.922     -2049.7012    
     99700   306.62899      456.72449      14255.416      15332.749     -2075.6853    
     99800   299.9933       464.34773      14282.264      15353.789     -2073.2099    
     99900   310.75015      477.01521      14271.223      15377.187     -2056.4193    
    100000   303.54274      455.20232      14330.87       15400.434     -2091.9998    
    100100   302.9926       469.81838      14342.816      15425.882     -2075.2057    
    100200   306.55033      481.32597      14346.427      15448.202     -2060.6339    
    100300   305.13296      455.83963      14399.958      15473.378     -2098.7132    
    100400   294.75216      466.99025      14433.803      15497.363     -2086.1353    
    100500   296.73402      470.55957      14449.12       15520.26      -2077.7231    
    100600   302.2577       456.61694      14474.601      15542.979     -2103.2728    
    100700   294.39568      471.24202      14501.056      15568.146     -2090.3457    
    100800   304.61604      466.60935      14508.828      15591.971     -2093.6215    
    100900   293.54212      458.9901       14562.9        15616.011     -2112.2       
    101000   302.12116      475.46386      14552.09       15639.038     -2091.1708    
    101100   296.42991      470.60405      14594.326      15664.895     -2096.3998    
    101200   305.44866      460.75507      14607.479      15686.453     -2108.1348    
    101300   292.51385      467.89622      14651.41       15711.346     -2107.376     
    101400   297.96475      468.87593      14664.97       15736.917     -2103.9571    
    101500   282.22528      464.69578      14724.98       15760.891     -2116.1184    
    101600   303.08653      462.54787      14707.413      15783.399     -2120.2212    
    101700   291.60665      462.25816      14754.869      15807.331     -2119.8389    
    101800   302.53691      468.3524       14750.157      15830.835     -2117.2186    
    101900   283.16685      468.55326      14814.025      15855.7       -2127.0158    
    102000   303.62284      469.95067      14796.308      15880.783     -2123.2475    
    102100   295.25365      466.90016      14840.309      15904.793     -2130.8172    
    102200   292.59356      457.34824      14878.287      15927.836     -2142.5361    
    102300   298.69225      472.88503      14876.348      15953.778     -2126.5446    
    102400   281.7006       475.47094      14932.108      15977.733     -2129.5956    
    102500   305.48887      460.94643      14920.749      15999.996     -2149.1362    
    102600   304.70325      472.50019      14935.986      16025.196     -2133.0716    
    102700   321.99337      476.03305      14922.075      16049.813     -2130.9783    
    102800   301.19554      461.04381      15003.025      16073.679     -2157.968     
    102900   302.52277      479.18663      15006.837      16098.321     -2142.2964    
    103000   295.6718       475.96894      15050.221      16124.62      -2145.2885    
    103100   297.89105      460.28491      15084.153      16147.361     -2165.4008    
    103200   289.08624      482.33266      15105.077      16172.512     -2145.6626    
    103300   303.10316      473.87069      15109.578      16196.921     -2153.4915    
    103400   294.82703      462.99787      15161.789      16221.508     -2175.1528    
    103500   299.45337      480.56167      15159.375      16246.021     -2151.4374    
    103600   313.17792      478.31988      15156.885      16269.068     -2154.9399    
    103700   303.94236      472.15197      15207.533      16294.855     -2170.2772    
    103800   300.7938       481.67731      15229.425      16319.9       -2163.6858    
    103900   303.79284      478.49276      15250.273      16343.633     -2171.4419    
    104000   285.20762      477.32811      15315.539      16370.119     -2175.1636    
    104100   300.50511      480.98427      15303.586      16392.784     -2174.5633    
    104200   304.31515      474.75971      15327.146      16417.83      -2182.8624    
    104300   306.95349      476.57193      15344.858      16442.695     -2179.0892    
    104400   304.06173      475.50889      15377.977      16468.898     -2184.0258    
    104500   301.81698      476.02439      15404.888      16491.781     -2183.2326    
    104600   302.98429      476.70586      15427.635      16517.572     -2185.5749    
    104700   299.6003       467.71932      15469.232      16543.334     -2202.6681    
    104800   293.88948      475.36335      15496.874      16567.061     -2188.8201    
    104900   284.05327      479.82587      15537.836      16592.577     -2192.7179    
    105000   295.59729      473.92618      15545.079      16617.285     -2206.018     
    105100   292.59565      478.11583      15571.276      16641.596     -2197.3524    
    105200   304.92117      474.41189      15576.344      16667.907     -2203.4212    
    105300   297.59551      474.93573      15613.713      16690.973     -2211.9276    
    105400   296.61505      485.96115      15630.727      16717.028     -2195.041     
    105500   286.147        472.4015       15690.817      16742.371     -2222.0822    
    105600   294.21325      472.23959      15698.751      16766.47      -2224.4865    
    105700   299.45982      488.80781      15696.205      16791.111     -2199.975     
    105800   308.89527      472.52198      15718.917      16816.633     -2223.7481    
    105900   307.12553      476.5574       15743.889      16842.059     -2227.6175    
    106000   300.92055      492.02049      15766.79       16867.865     -2210.984     
    106100   304.37397      480.17576      15795.887      16892.106     -2229.1703    
    106200   306.43374      486.74033      15811.137      16918.09      -2226.145     
    106300   302.35506      494.54547      15835.659      16942.162     -2217.2235    
    106400   306.98919      482.12033      15864.356      16967.813     -2240.8811    
    106500   304.97676      489.21463      15886.607      16993.085     -2234.2265    
    106600   300.21751      491.47349      15920.09       17019.195     -2229.229     
    106700   311.83297      484.21264      15926.685      17042.038     -2242.2963    
    106800   290.1864       490.84656      15992.839      17071.014     -2244.7359    
    106900   302.99018      485.81571      15995.593      17094.652     -2247.1882    
    107000   290.64065      483.51165      16047.581      17119.341     -2257.2785    
    107100   299.30581      492.88495      16045.977      17144.648     -2246.7564    
    107200   293.91102      483.84145      16094.022      17172.73      -2255.3883    
    107300   292.97548      478.65124      16124.717      17196.342     -2267.7394    
    107400   297.68813      489.15135      16130.793      17222.456     -2254.5972    
    107500   293.06632      485.4657       16170.915      17249.538     -2258.7521    
    107600   303.82687      478.87268      16178.756      17272.566     -2265.6848    
    107700   305.97019      478.79629      16200.787      17298.858     -2269.9791    
    107800   306.37043      480.54684      16224.089      17324.72      -2265.0494    
    107900   305.91878      481.39583      16249.414      17349.98      -2267.7636    
    108000   294.7261       481.35107      16298.466      17376.334     -2279.4011    
    108100   310.13307      484.93457      16289.774      17402.409     -2273.4769    
    108200   301.41726      483.26418      16334.059      17427.383     -2280.259     
    108300   301.92924      477.77355      16364.724      17453.593     -2289.8065    
    108400   296.12208      491.17732      16388.443      17478.962     -2280.4783    
    108500   299.31509      494.26761      16403.095      17503.167     -2282.0178    
    108600   294.68516      478.99107      16454.357      17529.782     -2302.791     
    108700   294.58538      497.35639      16463.903      17557.491     -2286.1412    
    108800   289.5814       500.62744      16493.795      17580.527     -2284.61      
    108900   303.89214      484.53254      16508.138      17607.739     -2304.4991    
    109000   299.33501      493.93154      16533.476      17633.252     -2296.7834    
    109100   298.40905      498.79735      16555.917      17658.685     -2298.6635    
    109200   295.89071      488.14712      16598.79       17685.811     -2307.5274    
    109300   313.03188      505.37648      16571.886      17710.83      -2296.356     
    109400   298.33389      497.55076      16635.453      17736.823     -2311.9478    
    109500   292.84854      487.85322      16682.401      17762.971     -2326.6123    
    109600   297.51369      512.10201      16676.34       17790.601     -2300.1211    
    109700   305.5438       494.9436       16700.754      17814.109     -2316.1855    
    109800   293.08048      484.46911      16764.449      17842.105     -2333.3841    
    109900   298.43007      509.7942       16753.143      17866.951     -2306.4039    
    110000   302.65016      493.30579      16788.365      17894.225     -2326.3552    
    110100   294.84488      484.86173      16838.782      17920.401     -2338.6459    
    110200   304.51472      508.08372      16821.381      17945.794     -2311.0071    
    110300   295.24805      493.23166      16882.431      17973.236     -2335.4704    
    110400   289.99123      484.24204      16927.563      17998.738     -2345.6569    
    110500   290.25098      509.97589      16927.828      18025.263     -2323.4258    
    110600   296.32314      493.64661      16957.713      18051.109     -2339.388     
    110700   291.17514      486.31073      17002.193      18077.834     -2352.691     
    110800   305.78066      498.32795      16986.865      18104.084     -2340.0338    
    110900   296.10099      489.7625       17040.245      18129.307     -2352.3648    
    111000   310.39746      493.27971      17035.224      18156.739     -2349.7222    
    111100   287.79199      497.74933      17103.383      18183.614     -2348.5674    
    111200   294.64154      492.11847      17119.665      18208.129     -2360.5798    
    111300   300.42656      499.17207      17128.992      18236.218     -2356.5496    
    111400   295.75838      505.29015      17159.081      18262.977     -2353.3846    
    111500   288.50531      497.89785      17205.956      18287.78      -2362.9155    
    111600   289.6666       504.01365      17226.227      18316.517     -2366.1973    
    111700   301.79583      502.52858      17228.469      18341.824     -2362.5975    
    111800   298.90854      499.53436      17264.466      18368.983     -2369.422     
    111900   288.95924      500.5566       17308.984      18394.385     -2375.3355    
    112000   298.10386      504.91205      17313.768      18422.033     -2375.0086    
    112100   285.15503      501.92739      17370.635      18449.707     -2378.0066    
    112200   302.42531      493.3633       17369.175      18474.638     -2389.6457    
    112300   291.70003      502.03982      17410.476      18502.908     -2384.0596    
    112400   297.3716       513.72425      17413.413      18529.008     -2372.9652    
    112500   297.10496      493.04831      17461.035      18555.415     -2404.7906    
    112600   298.14255      506.0233       17472.074      18581.529     -2393.2368    
    112700   299.01016      519.3503       17483.782      18608.32      -2373.9918    
    112800   298.87775      496.10181      17535.076      18636.098     -2409.0063    
    112900   305.95316      505.78132      17538.792      18663.813     -2396.5424    
    113000   302.41938      520.79009      17556.993      18689.871     -2384.5386    
    113100   308.77437      498.2748       17592.208      18715.432     -2415.7813    
    113200   305.05391      511.98026      17613.065      18742.465     -2396.4859    
    113300   298.61986      516.12264      17650.11       18770.63      -2395.3835    
    113400   300.59527      489.36557      17698.967      18796.728     -2437.9697    
    113500   308.43989      511.29488      17688.408      18823.976     -2406.499     
    113600   289.61106      514.62946      17751.151      18851.945     -2404.7039    
    113700   306.79266      487.40289      17769.36       18877.702     -2441.2203    
    113800   303.96503      510.74527      17777.737      18903.698     -2413.4133    
    113900   295.80214      520.79152      17813.535      18933.021     -2405.6879    
    114000   304.58031      486.81237      17855.145      18958.419     -2446.8445    
    114100   299.81101      511.40236      17868.062      18986.273     -2418.418     
    114200   302.87194      518.71121      17882.182      19013.897     -2411.3578    
    114300   302.59035      491.57019      17937.375      19041.379     -2454.3189    
    114400   300.56088      505.52653      17953.941      19067.794     -2436.7612    
    114500   295.51098      520.76847      17976.412      19095.286     -2422.0867    
    114600   296.56073      499.33034      18023.523      19123.084     -2455.3705    
    114700   297.23187      504.78545      18044.404      19150.778     -2449.8421    
    114800   296.96867      518.37014      18058.074      19177.5       -2434.5546    
    114900   294.95659      504.8605       18102.726      19204.569     -2458.9817    
    115000   298.11299      506.80951      18122.275      19232.456     -2454.8577    
    115100   302.37018      522.57244      18125.33       19259.89      -2443.8895    
    115200   304.40146      508.66452      18163.472      19288.236     -2461.4269    
    115300   301.50315      504.91441      18199.737      19314.885     -2466.2581    
    115400   303.29503      528.2052       18200.676      19342.741     -2442.9465    
    115500   308.60918      518.15846      18226.602      19369.376     -2462.1311    
    115600   288.89416      504.57309      18308.629      19397.915     -2480.9283    
    115700   296.43584      531.44437      18293.57       19424.992     -2449.7389    
    115800   292.52945      521.97021      18339.561      19453.602     -2470.2194    
    115900   307.92449      501.14671      18354.318      19478.695     -2489.3403    
    116000   304.93903      530.58445      18359.725      19507.497     -2457.6994    
    116100   300.40127      525.25039      18401.576      19534.83      -2471.5799    
    116200   285.58311      493.34157      18493.007      19564.36      -2509.7581    
    116300   293.71702      531.55115      18465.163      19591.189     -2465.9622    
    116400   302.61348      531.34753      18473.477      19617.306     -2474.2909    
    116500   286.48844      494.29901      18572.079      19646.222     -2527.7275    
    116600   302.81501      531.29846      18528.541      19672.728     -2479.0536    
    116700   313.34543      531.87705      18534.108      19700.187     -2476.9678    
    116800   297.8198       496.23601      18631.914      19730.928     -2528.7935    
    116900   292.07875      532.81097      18634.115      19758.085     -2487.9585    
    117000   310.16862      528.60479      18627.959      19784.336     -2483.8573    
    117100   287.71179      500.26225      18731.705      19814.287     -2532.561     
    117200   303.56409      533.23825      18692.446      19840.089     -2492.4759    
    117300   303.77107      524.92925      18728.265      19868.018     -2497.6771    
    117400   293.50677      494.08705      18810.638      19898.773     -2543.8224    
    117500   302.5139       524.51833      18787.638      19924.435     -2504.5163    
    117600   298.87307      527.8584       18820.219      19952.987     -2505.851     
    117700   299.36507      500.62289      18874.216      19980.745     -2543.6773    
    117800   287.88168      521.41837      18904.929      20009.011     -2519.971     
    117900   308.4739       523.90218      18887.756      20036         -2516.2486    
    118000   309.54086      501.61586      18936.432      20064.55      -2547.7578    
    118100   304.16134      523.10827      18953.668      20092.389     -2526.0156    
    118200   290.11681      530.78406      19003.169      20121.14      -2518.3342    
    118300   301.80432      510.91518      19027.36       20149.118     -2552.4887    
    118400   294.00773      519.72992      19062.706      20177.498     -2549.4607    
    118500   299.29492      537.23612      19063.21       20206.21      -2523.2538    
    118600   295.83686      527.42417      19108.198      20234.388     -2543.1539    
    118700   296.67178      512.57406      19148.652      20261.681     -2562.7083    
    118800   301.86611      535.19759      19144.425      20290.59      -2539.1532    
    118900   299.119        532.13037      19179.708      20317.246     -2549.4591    
    119000   309.69552      517.4127       19202.45       20346.678     -2567.5721    
    119100   301.51323      538.50238      19227.56       20376.316     -2543.6846    
    119200   296.38046      536.27831      19268.265      20404.408     -2556.2799    
    119300   288.00084      516.61847      19334.903      20434.427     -2583.3646    
    119400   309.60425      536.60027      19297.664      20460.894     -2548.3201    
    119500   295.32272      534.98907      19356.799      20489.512     -2564.9428    
    119600   298.53599      513.82799      19400.304      20518.36      -2589.4492    
    119700   310.39035      543.47296      19375.351      20547.045     -2555.5239    
    119800   298.72555      534.22992      19436.26       20575.102     -2574.1888    
    119900   282.08801      513.89586      19520.452      20605.285     -2597.8356    
    120000   296.76385      542.58293      19489.658      20632.882     -2561.9278    
    120100   291.80081      540.62164      19530.153      20661.371     -2579.9646    
    120200   306.39445      510.25924      19557.824      20688.216     -2608.5684    
    120300   292.33243      547.14053      19579.493      20718.306     -2569.4088    
    120400   299.89527      540.77899      19599.39       20747.148     -2578.7938    
    120500   315.43676      504.67514      19633.401      20776.51      -2621.5531    
    120600   296.01113      539.30224      19666.15       20804.57      -2584.3222    
    120700   296.79285      541.64657      19690.088      20832.434     -2588.0887    
    120800   297.70656      510.35267      19749.442      20862.344     -2625.2857    
    120900   294.93361      540.4271       19753.784      20891.148     -2590.1243    
    121000   296.9468       541.07389      19777.423      20919.508     -2593.1855    
    121100   300.22828      516.70167      19823.909      20948.263     -2628.856     
    121200   297.60075      542.28849      19832.887      20977.511     -2598.1114    
    121300   298.54405      538.75671      19862.304      21005.305     -2599.3927    
    121400   287.59964      516.57576      19937.776      21036.444     -2637.4467    
    121500   299.28881      537.89279      19920.314      21063.958     -2610.136     
    121600   301.81195      537.91323      19943.919      21092.69      -2615.6152    
    121700   295.08891      522.27784      20002.172      21121.701     -2644.6927    
    121800   297.95621      545.61313      20003.377      21152.045     -2617.8857    
    121900   301.55379      545.62299      20024.368      21180.327     -2622.9733    
    122000   294.11999      522.17071      20092.549      21210.01      -2653.7428    
    122100   296.65313      543.36865      20094.332      21238.118     -2631.1569    
    122200   309.72909      557.09376      20084.146      21268.122     -2619.4414    
    122300   308.09576      531.68197      20141.34       21296.598     -2653.6574    
    122400   301.38204      534.6324       20180.85       21325.471     -2652.3719    
    122500   299.24189      556.50213      20194.162      21356.321     -2624.6793    
    122600   310.28101      541.86468      20215.126      21384.99      -2648.2141    
    122700   301.81269      535.93042      20267.022      21413.812     -2662.8576    
    122800   293.66618      558.97338      20289.443      21442.788     -2631.4869    
    122900   287.38212      545.68228      20344.533      21471.868     -2656.2592    
    123000   299.04871      533.67932      20362.599      21501.544     -2675.8138    
    123100   306.17705      558.20292      20351.924      21529.82      -2638.9171    
    123200   310.39183      549.15348      20383.386      21560.763     -2660.3454    
    123300   296.48524      525.84705      20464.643      21590.568     -2692.8351    
    123400   296.13604      554.79053      20464.307      21618.468     -2657.2536    
    123500   294.81396      546.93302      20504.804      21648.432     -2672.3544    
    123600   291.64453      524.38608      20562.08       21676.746     -2701.8874    
    123700   300.7024       553.88677      20546.215      21708.714     -2659.7835    
    123800   301.99644      546.6896       20580.013      21737.934     -2677.7156    
    123900   293.42003      519.90586      20654.305      21768.084     -2711.8315    
    124000   295.87539      554.08411      20644.286      21797.213     -2665.9665    
    124100   312.09204      553.67019      20639.636      21824.971     -2673.2786    
    124200   292.17096      524.52035      20741.015      21856.881     -2716.7292    
    124300   292.98692      553.62589      20739.064      21885.686     -2683.338     
    124400   304.43807      556.48468      20742.858      21915.516     -2675.9199    
    124500   312.423        523.75227      20787.206      21943.293     -2720.2427    
    124600   294.28646      552.55354      20827.757      21975.937     -2694.9199    
    124700   303.51501      561.46354      20827.853      22003.622     -2684.0953    
    124800   304.40208      529.36291      20888.893      22034.357     -2726.9116    
    124900   297.88738      550.44127      20910.087      22063.444     -2704.3061    
    125000   295.26945      559.46457      20936.111      22093.192     -2696.5726    
    125100   301.93838      533.27519      20979.481      22123.87      -2737.07      
    125200   309.55065      552.06151      20974.971      22153.554     -2718.2345    
    125300   292.03331      561.30744      21029.88       22182.254     -2708.6426    
    125400   304.55565      543.96179      21052.178      22212.552     -2732.9371    
    125500   296.8004       557.76552      21086.726      22245.207     -2720.9315    
    125600   285.12937      562.41388      21134.071      22273.578     -2720.192     
    125700   309.0905       550.62483      21126.515      22302.73      -2735.7121    
    125800   299.00005      558.57679      21169.642      22333.386     -2725.6186    
    125900   299.39396      564.93174      21191.549      22362.445     -2722.0356    
    126000   299.02943      549.01511      21239.16       22393.402     -2744.6718    
    126100   300.18115      552.58188      21264.377      22424.517     -2745.0425    
    126200   294.00955      567.55014      21291.57       22454.187     -2726.7807    
    126300   293.46286      553.33462      21336.756      22484.051     -2744.1604    
    126400   306.01568      545.4497       21347.856      22512.672     -2758.7807    
    126500   297.94778      564.30494      21377.05       22544.393     -2737.5699    
    126600   297.29551      556.38227      21416.672      22574.772     -2750.2273    
    126700   310.48913      542.33352      21432.889      22603.643     -2777.3416    
    126800   302.05799      565.89334      21457.921      22635.17      -2745.6011    
    126900   300.52407      563.37681      21493.846      22665.474     -2755.6491    
    127000   317.01292      538.09051      21514.482      22694.197     -2789.7345    
    127100   308.60422      562.95365      21538.617      22726.176     -2756.2353    
    127200   292.92434      569.65666      21595.509      22758.036     -2753.903     
    127300   298.97877      538.98185      21643.218      22787.323     -2793.4075    
    127400   287.59633      564.4566       21671.857      22818.4       -2768.3523    
    127500   301.22462      567.88605      21669.063      22846.618     -2763.3236    
    127600   285.77987      538.87907      21760.643      22877.931     -2803.2312    
    127700   299.63931      564.41335      21737.681      22908.555     -2771.7547    
    127800   301.11795      573.03323      21757.575      22940.061     -2769.1605    
    127900   294.03575      541.57733      21833.296      22969.993     -2814.2313    
    128000   299.76683      557.60271      21835.271      22999.592     -2791.1572    
    128100   306.59235      579.75691      21831.048      23031.339     -2768.0199    
    128200   297.98494      547.29657      21910.805      23061.214     -2819.4011    
    128300   300.29588      560.87659      21924.146      23092.813     -2805.5308    
    128400   289.91351      582.85586      21953.971      23123.603     -2779.4272    
    128500   305.0409       545.85089      21991.325      23154.569     -2829.2994    
    128600   298.19666      556.54453      22024.433      23184.519     -2815.3446    
    128700   307.08827      584.87901      22008.1        23214.516     -2781.4884    
    128800   297.83589      553.51064      22091.839      23248.161     -2823.2823    
    128900   301.27204      550.5979       22116.767      23277.13      -2830.2113    
    129000   289.85777      582.15188      22140.152      23308.968     -2793.9605    
    129100   295.83807      568.72387      22171.599      23339.09      -2818.4773    
    129200   307.01858      550.12045      22196.922      23368.439     -2837.3805    
    129300   299.22054      571.51378      22222.046      23399.173     -2820.0055    
    129400   309.06708      570.90976      22234.465      23430.918     -2823.8463    
    129500   302.06579      555.51753      22296.469      23463.359     -2842.2517    
    129600   314.79471      570.10779      22285.01       23492.253     -2828.9727    
    129700   306.02986      574.70072      22328.736      23522.832     -2827.4028    
    129800   285.41203      559.18395      22419.616      23556.466     -2853.8451    
    129900   304.08587      568.00855      22403.318      23586.787     -2841.9795    
    130000   283.70792      573.81455      22468.974      23617.005     -2835.6642    
    130100   298.01106      558.06819      22487.62       23648.854     -2861.6241    
    130200   291.34365      571.87388      22520.149      23681.694     -2846.2375    
    130300   303.44659      575.77444      22520.155      23710.096     -2838.9546    
    130400   296.57213      561.85559      22579.689      23741.797     -2867.6196    
    130500   287.54476      575.28397      22617.332      23774.598     -2854.0555    
    130600   301.51498      589.11142      22605.512      23804.881     -2838.2419    
    130700   295.54811      558.34367      22678.883      23835.407     -2879.2892    
    130800   307.39246      564.99343      22680.231      23867.378     -2871.3541    
    130900   298.19557      586.91705      22707.858      23898.314     -2848.0538    
    131000   306.1657       564.21643      22745.212      23929.099     -2877.1972    
    131100   296.22834      560.42426      22801.115      23961.097     -2888.2453    
    131200   303.79605      582.34831      22794.939      23992.161     -2857.7121    
    131300   293.98118      567.09241      22862.871      24024.973     -2887.357     
    131400   289.10493      557.79803      22912.547      24055.485     -2900.2782    
    131500   303.47331      587.38167      22883.102      24084.705     -2865.6071    
    131600   305.27036      575.48802      22924.951      24118.297     -2886.6544    
    131700   295.74763      563.66006      22986.873      24149.117     -2910.0204    
    131800   290.21479      590.61525      23003.77       24181.772     -2875.3456    
    131900   299.25499      574.04422      23032.968      24212.695     -2895.7177    
    132000   311.03008      562.47672      23050.363      24242.355     -2912.2503    
    132100   285.32815      590.21005      23109.368      24277.073     -2883.0738    
    132200   285.69367      579.49952      23150.07       24307.805     -2906.8138    
    132300   286.64708      566.87262      23193.772      24340.81      -2921.8298    
    132400   295.14353      593.66392      23180.261      24371.287     -2890.4241    
    132500   295.88686      579.08549      23224.633      24402.585     -2913.1354    
    132600   306.31361      563.64867      23250.001      24433.619     -2932.7215    
    132700   297.31747      587.86225      23276.841      24466.465     -2907.3915    
    132800   290.78804      586.08028      23323.868      24498.495     -2909.9778    
    132900   298.52371      570.53945      23355.404      24530.146     -2937.0505    
    133000   298.89286      578.95         23378.62       24562.52      -2930.634     
    133100   302.80313      591.47166      23388.375      24592.711     -2915.1552    
    133200   306.69495      569.01808      23434.785      24624.545     -2938.1624    
    133300   298.70573      576.99209      23474.48       24656.044     -2942.3534    
    133400   296.49524      592.42374      23496.457      24688.978     -2919.1716    
    133500   302.09333      573.38613      23536.31       24721.124     -2945.4929    
    133600   300.25429      574.22399      23570.984      24752.914     -2949.6249    
    133700   292.09306      598.66439      23595.065      24784.917     -2925.7617    
    133800   297.77806      580.87122      23633.219      24816.785     -2947.5961    
    133900   303.63629      572.02512      23661.509      24848.085     -2961.002     
    134000   303.63394      599.80621      23666.28       24880.633     -2933.1915    
    134100   301.86253      584.67625      23717.983      24913.62      -2955.3651    
    134200   304.37368      571.16954      23756.608      24943.82      -2974.7416    
    134300   296.68619      604.72212      23771.824      24977.03      -2941.3114    
    134400   306.84399      593.80735      23794.336      25009.187     -2952.3774    
    134500   289.04882      563.46375      23893.154      25041.644     -2997.7024    
    134600   292.46444      596.49005      23886.322      25074.752     -2961.8087    
    134700   309.35318      603.95273      23875.911      25105.985     -2949.3607    
    134800   294.1          563.259        23978.832      25137.34      -3006.8136    
    134900   306.42861      585.66375      23964.952      25170.818     -2976.6019    
    135000   302.27627      609.66745      23982.02       25203.485     -2951.0827    
    135100   305.2829       573.46483      24044.987      25236.336     -3001.9658    
    135200   300.48408      582.35678      24076.59       25267.118     -2987.1427    
    135300   308.38747      610.90393      24065.248      25300.319     -2957.4365    
    135400   303.16354      581.11528      24137.258      25331.967     -3000.8163    
    135500   295.46244      580.91064      24184.448      25363.366     -3003.0635    
    135600   296.77355      609.80877      24187.296      25397.765     -2974.687     
    135700   305.90229      586.36008      24223.724      25429.221     -3005.4906    
    135800   304.32834      583.53206      24262.183      25461.667     -3007.5585    
    135900   298.87144      611.77684      24277.621      25494.305     -2987.073     
    136000   293.96143      590.59554      24341.816      25527.381     -3016.15      
    136100   305.68827      586.25352      24354.643      25559.6       -3016.2846    
    136200   284.91059      607.59056      24408.347      25592.588     -2997.2433    
    136300   296.81943      591.24241      24434.519      25626.515     -3019.4274    
    136400   290.61539      580.50718      24490.192      25658.896     -3037.4611    
    136500   299.17751      607.01457      24478.105      25690.646     -3005.006     
    136600   307.76492      595.22075      24504.027      25722.155     -3014.9848    
    136700   305.36933      578.59182      24559.551      25756.201     -3045.4171    
    136800   293.72066      607.89603      24587.213      25789.591     -3020.7708    
    136900   296.79152      614.37854      24606.939      25822.014     -3016.6323    
    137000   288.70464      583.00951      24688.326      25855.665     -3048.7249    
    137100   287.77796      596.78292      24708.841      25888.078     -3039.7537    
    137200   301.97419      612.12785      24696.361      25919.675     -3020.7118    
    137300   299.77682      593.49281      24752.053      25952.285     -3046.841     
    137400   295.8483       588.89808      24797.971      25985.657     -3059.2572    
    137500   306.03506      603.62077      24795.131      26018.157     -3031.9136    
    137600   293.94864      597.27582      24859.468      26051.687     -3048.7653    
    137700   295.40287      584.28878      24903.013      26085.188     -3071.5514    
    137800   281.30806      604.33855      24944.408      26118.106     -3049.8704    
    137900   302.79971      598.68132      24940.062      26151.601     -3055.054     
    138000   306.32425      590.8738       24972.745      26183.61      -3074.2257    
    138100   303.3866       610.97943      24992.099      26217.124     -3050.3403    
    138200   296.02015      606.45377      25043.922      26249.512     -3063.0548    
    138300   298.15064      588.05452      25090.937      26282.439     -3089.8233    
    138400   303.28406      615.19228      25086.422      26315.452     -3055.091     
    138500   308.50296      611.79393      25114.776      26350.97      -3065.4314    
    138600   306.42216      588.51928      25173.832      26382.541     -3100.2955    
    138700   299.26324      621.99282      25188.04       26415.732     -3062.2818    
    138800   295.84211      625.24144      25224.612      26448.629     -3065.9211    
    138900   305.89607      589.67811      25273.526      26482.328     -3108.2537    
    139000   295.57185      611.76317      25306.571      26516.563     -3084.1282    
    139100   295.11768      628.65134      25322.709      26548.67      -3068.8348    
    139200   301.30381      591.78483      25382.677      26584.291     -3115.7405    
    139300   294.09224      604.38582      25417.142      26616.762     -3103.216     
    139400   307.28906      631.29174      25395.653      26648.888     -3076.3011    
    139500   302.16668      597.39576      25472.621      26681.593     -3114.569     
    139600   279.77766      600.84736      25551.245      26718.354     -3115.3547    
    139700   300.4353       620.67798      25521.016      26749.766     -3093.7403    
    139800   294.33227      594.75354      25591.701      26782.174     -3124.1881    
    139900   299.69947      602.00485      25608.744      26817.332     -3120.3857    
    140000   300.73563      623.80027      25617.378      26849.858     -3096.338     
    140100   308.26931      595.55054      25663.904      26883.382     -3125.1937    
    140200   287.37602      601.51883      25734.902      26918.061     -3134.6772    
    140300   296.99624      624.98964      25725.467      26951.568     -3109.9498    
    140400   313.25313      606.25478      25744.412      26984.681     -3127.0667    
    140500   290.73383      598.60876      25832.586      27019.631     -3146.7095    
    140600   297.18218      623.78919      25828.174      27053.451     -3124.759     
    140700   301.95526      622.77805      25851.411      27085.337     -3126.2946    
    140800   298.23185      603.77348      25913.349      27120.735     -3155.5027    
    140900   293.39124      613.02523      25946.748      27153.589     -3143.3151    
    141000   305.91998      626.17034      25941.359      27186.703     -3121.9513    
    141100   304.28176      603.31157      26001.001      27220.17      -3158.0863    
    141200   298.66964      602.48369      26048.384      27255.366     -3165.4812    
    141300   302.1289       624.8246       26053.114      27289.438     -3133.0296    
    141400   300.12054      612.1681       26104.577      27324.18      -3159.091     
    141500   300.1516       601.94353      26146.807      27356.248     -3171.6004    
    141600   301.76845      627.79086      26151.776      27390.337     -3144.7865    
    141700   301.76044      618.68153      26195.556      27424.992     -3161.6366    
    141800   310.76222      600.88655      26228.755      27458.615     -3182.1067    
    141900   289.7927       635.73444      26272.941      27495.207     -3152.8516    
    142000   296.86275      620.91935      26304.231      27525.992     -3171.0976    
    142100   289.55762      605.27813      26369.494      27560.828     -3195.6116    
    142200   305.32958      637.95712      26338.592      27594.527     -3153.9712    
    142300   281.03165      633.383        26427.513      27629.695     -3172.7443    
    142400   305.52611      600.26735      26445.43       27664.073     -3206.1766    
    142500   300.869        636.3663       26454.186      27699.502     -3171.3197    
    142600   301.10586      641.33729      26481.428      27732.195     -3170.2776    
    142700   289.45183      600.71459      26578.64       27765.197     -3218.9069    
    142800   312.50003      633.40534      26534.868      27800.764     -3185.5335    
    142900   303.55152      648.11389      26571.479      27833.972     -3171.7494    
    143000   298.6421       603.07437      26661.118      27868.635     -3218.7599    
    143100   315.53588      619.38719      26644.386      27902.408     -3206.5246    
    143200   300.69951      645.18544      26683.557      27937.349     -3184.1221    
    143300   286.51863      617.01627      26775.99       27972.911     -3219.1361    
    143400   288.52215      616.34765      26806.381      28006.689     -3220.8533    
    143500   303.8796       641.04881      26785.537      28041.629     -3198.512     
    143600   295.04334      616.89551      26861.945      28075.999     -3223.3405    
    143700   305.79674      615.81118      26874.322      28109.056     -3230.9513    
    143800   304.07781      638.60475      26890.582      28144.631     -3200.0138    
    143900   303.84408      620.58392      26943.958      28179.514     -3226.8982    
    144000   298.50401      612.44369      26997.32       28213.927     -3242.3341    
    144100   288.03373      638.21369      27027.329      28248.514     -3216.0037    
    144200   297.24432      634.25843      27047.057      28282.929     -3227.8794    
    144300   299.77589      612.51834      27097.484      28316.739     -3251.9521    
    144400   299.22345      634.18847      27112.029      28351.836     -3230.411     
    144500   302.33653      646.67836      27128.837      28387.436     -3221.8983    
    144600   291.22672      614.22074      27218.606      28422.26      -3266.7926    
    144700   299.95487      620.33959      27229.332      28456.772     -3256.0444    
    144800   294.90158      653.08425      27240.421      28490.377     -3222.965     
    144900   295.88487      626.13866      27299.741      28524.742     -3257.3276    
    145000   308.85135      605.89676      27327.305      28558.307     -3278.7918    
    145100   297.2666       645.67407      27347.598      28594.93      -3240.7973    
    145200   297.30596      640.25711      27389.16       28631.155     -3251.1062    
    145300   309.651        610.24273      27427.695      28664.662     -3288.5626    
    145400   301.3292       640.73936      27448.823      28699.443     -3255.2235    
    145500   295.32235      651.11972      27485.55       28734.394     -3254.6557    
    145600   298.79503      619.3678       27546.031      28770.151     -3289.9341    
    145700   299.90923      648.841        27549.814      28805.662     -3267.2818    
    145800   296.73249      654.50461      27585.128      28840.211     -3264.796     
    145900   300.59552      622.74015      27643.084      28874.22      -3296.163     
    146000   300.51399      645.80502      27656.31       28910.347     -3275.9301    
    146100   295.02488      654.63082      27692.447      28944.2       -3268.3384    
    146200   307.72639      621.81537      27735.422      28980.066     -3306.9454    
    146300   298.99728      643.17037      27767.34       29015.672     -3286.8893    
    146400   300.99726      664.92432      27776.495      29050.629     -3267.2239    
    146500   300.41305      619.68245      27858.494      29086.203     -3319.6737    
    146600   311.15263      633.95858      27856.839      29120.561     -3308.6672    
    146700   303.92027      667.89539      27873.18       29156.201     -3273.1199    
    146800   312.81418      629.08258      27928.172      29190.381     -3315.6785    
    146900   298.57996      632.20672      27989.421      29225.945     -3324.386     
    147000   302.62642      660.45114      27987.81       29260.768     -3291.9791    
    147100   298.40184      641.83508      28050.497      29296.288     -3315.5776    
    147200   304.12928      630.33312      28086.715      29332.596     -3332.0586    
    147300   303.93634      653.76112      28098.836      29367.755     -3307.8266    
    147400   314.97095      641.20781      28124.053      29402.753     -3316.4587    
    147500   296.9025       629.6977       28207.468      29438.087     -3337.8582    
    147600   298.18959      649.91983      28219.944      29473.39      -3320.7505    
    147700   302.36112      645.29508      28251.615      29508.88      -3321.6625    
    147800   289.89107      630.12574      28329.121      29545.977     -3348.2056    
    147900   300.854        645.24162      28326.568      29580.729     -3329.607     
    148000   294.80575      658.09281      28360.529      29615.3       -3325.6022    
    148100   309.49668      631.13204      28393.806      29651.35      -3355.9487    
    148200   303.63424      641.54443      28430.697      29686.788     -3347.333     
    148300   296.78504      668.58586      28452.718      29721.988     -3324.2564    
    148400   296.8173       639.44042      28519.249      29759.439     -3363.2468    
    148500   309.54033      632.21483      28537.077      29795.792     -3370.5398    
    148600   295.31279      666.64362      28565.394      29829.742     -3333.898     
    148700   297.04426      656.38608      28608.004      29865.599     -3354.4181    
    148800   292.05309      626.27225      28684.065      29901.444     -3385.3597    
    148900   290.34458      669.84454      28680.202      29937.695     -3349.8508    
    149000   294.45067      666.43511      28711.344      29973.738     -3352.7846    
    149100   296.80399      627.83564      28783.26       30011.818     -3399.2654    
    149200   302.39069      661.26917      28771.585      30044.884     -3367.2701    
    149300   300.0051       675.70519      28796.336      30079.243     -3354.5635    
    149400   308.42981      636.55236      28856.004      30116.809     -3401.5452    
    149500   283.30508      653.76041      28926.193      30153.354     -3386.954     
    149600   287.95455      682.74916      28923.016      30188.577     -3363.2372    
    149700   300.58631      645.8313       28970.734      30224.943     -3399.5278    
    149800   300.93168      648.35083      29002.671      30260.098     -3401.2522    
    149900   299.67633      684.53575      29005.762      30296.834     -3363.4318    
    150000   309.1247       649.88155      29057.837      30333.377     -3400.5079    
    150100   311.49195      633.41879      29103.606      30367.476     -3422.21      
    150200   293.17259      680.59414      29132.846      30406.813     -3374.6364    
    150300   307.06851      666.0466       29152.821      30440.365     -3395.8455    
    150400   296.13373      628.87672      29247.98       30476.223     -3437.5626    
    150500   295.57279      670.37307      29244.896      30513.5       -3392.8504    
    150600   302.89414      676.46268      29259.149      30548.66      -3395.2088    
    150700   310.99094      634.44807      29322.49       30586.374     -3441.233     
    150800   290.61705      663.6021       29370.706      30622.509     -3413.8812    
    150900   300.90502      679.79898      29369.005      30657.827     -3405.4209    
    151000   296.35262      647.50612      29446.344      30693.659     -3447.9987    
    151100   291.98246      658.35231      29483.265      30732.582     -3431.0695    
    151200   307.59658      677.10447      29467.966      30767.637     -3412.4734    
    151300   312.13822      650.69188      29519.967      30802.417     -3440.5038    
    151400   315.99308      658.33924      29541.627      30839.526     -3435.7664    
    151500   304.84344      671.39866      29587.35       30875.743     -3425.6901    
    151600   309.06806      652.61392      29634.277      30912.435     -3444.1792    
    151700   290.04753      644.73487      29719.277      30951.059     -3457.1789    
    151800   310.64528      671.2243       29685.653      30985.614     -3429.5706    
    151900   285.75013      670.12037      29773.349      31021.819     -3443.2834    
    152000   302.28251      642.1367       29805.232      31059.179     -3472.9234    
    152100   301.69407      665.06193      29821.313      31096.994     -3450.2457    
    152200   308.689        681.48302      29826.39       31132.65      -3435.8554    
    152300   293.1421       647.99614      29927.623      31168.93      -3484.4601    
    152400   308.77717      654.75439      29926.241      31205.951     -3473.4336    
    152500   305.13168      691.71287      29932.432      31241.723     -3439.4814    
    152600   298.88485      663.68729      30009.557      31278.178     -3477.2517    
    152700   296.13894      649.07811      30068.376      31316.831     -3492.1498    
    152800   290.70208      686.87822      30078.229      31353.48      -3453.21      
    152900   294.60024      666.51892      30127.262      31390.043     -3479.9777    
    153000   297.32185      648.64684      30174.427      31424.844     -3501.3528    
    153100   291.94661      684.7234       30187.602      31463.217     -3466.0672    
    153200   298.52405      679.27966      30216.395      31499.878     -3480.3212    
    153300   310.35245      653.68119      30255.529      31537.354     -3508.2295    
    153400   298.51659      678.77015      30291.703      31574.661     -3482.3444    
    153500   303.45812      686.62298      30309.918      31610.731     -3485.4164    
    153600   298.60965      654.82357      30387.367      31646.567     -3521.5426    
    153700   297.31733      683.00634      30400.141      31684.909     -3494.4835    
    153800   314.4869       696.21144      30388.729      31721.452     -3478.3858    
    153900   292.34375      655.30404      30512.182      31759.181     -3530.3394    
    154000   296.09447      662.41913      30533.708      31795.414     -3522.9609    
    154100   298.14226      696.95096      30530.548      31830.93      -3485.2911    
    154200   306.61309      663.02831      30586.045      31869.65      -3523.13      
    154300   295.39392      652.88123      30655.676      31906.426     -3543.314     
    154400   300.9231       696.3218       30638.867      31944.248     -3502.2667    
    154500   302.33529      685.11336      30684.727      31981.758     -3515.8022    
    154600   296.72836      660.15474      30759.031      32019.755     -3549.9172    
    154700   297.30138      682.54454      30771.71       32055.984     -3523.4683    
    154800   299.61279      689.65023      30795.479      32091.536     -3518.956     
    154900   301.16631      672.23386      30849.331      32131.117     -3545.1608    
    155000   298.92726      681.81603      30881.338      32168.174     -3539.0155    
    155100   297.81694      677.35131      30924.567      32204.691     -3538.8007    
    155200   295.74257      669.53327      30975.326      32243.434     -3551.6694    
    155300   298.20274      684.46085      30991.291      32279.305     -3540.094     
    155400   295.88404      676.73493      31042.936      32318.531     -3544.1086    
    155500   305.11255      667.80381      31068.662      32354.004     -3563.7985    
    155600   286.54174      678.84161      31132.834      32391.628     -3556.7458    
    155700   292.03419      691.94822      31147.55       32430.567     -3544.8553    
    155800   308.05525      677.065        31166.279      32466.839     -3568.2688    
    155900   300.83334      675.28278      31220.285      32504.446     -3575.8161    
    156000   298.04174      703.47656      31237.037      32543.741     -3550.9148    
    156100   301.99706      698.85302      31269.455      32579.542     -3560.0134    
    156200   285.57103      672.15897      31367.55       32617.697     -3592.2436    
    156300   311.86192      685.44551      31338.944      32655.589     -3573.2577    
    156400   300.83745      707.81661      31375.458      32692.161     -3555.4048    
    156500   303.74162      667.41673      31447.339      32729.52      -3597.6204    
    156600   296.43284      670.00015      31498.36       32768.331     -3599.6845    
    156700   307.92731      707.94139      31475.474      32806.651     -3559.9152    
    156800   289.88339      673.86925      31583.684      32844.269     -3600.2256    
    156900   310.09114      671.55153      31581.905      32881.072     -3609.395     
    157000   305.12209      713.44429      31588.267      32919.269     -3573.6584    
    157100   291.80449      687.61121      31680.459      32958.674     -3603.3247    
    157200   298.22683      674.46264      31716.333      32994.398     -3617.2353    
    157300   291.9487       709.88008      31730.917      33031.693     -3585.7822    
    157400   293.98852      694.54241      31781.74       33071.307     -3606.4333    
    157500   297.71045      671.41754      31834.944      33108.919     -3632.634     
    157600   290.15879      707.91881      31851.39       33146.582     -3596.101     
    157700   305.47917      706.05963      31859.853      33184.193     -3601.4363    
    157800   290.88919      673.08331      31961.637      33223.472     -3643.4464    
    157900   295.44382      697.85371      31963.928      33259.751     -3616.0178    
    158000   290.76883      712.44961      31997.683      33298.64      -3605.6169    
    158100   303.41099      686.49112      32036.726      33337.311     -3645.2097    
    158200   304.74726      689.81081      32068.299      33374.909     -3638.2709    
    158300   299.85351      718.79206      32088.328      33414.015     -3611.821     
    158400   293.22856      697.23441      32161.345      33452.065     -3640.7245    
    158500   296.00911      679.17945      32211.591      33489.884     -3655.9734    
    158600   294.40734      706.05787      32226.935      33528.865     -3634.3085    
    158700   296.8519       694.75935      32270.595      33566.173     -3642.2362    
    158800   300.98337      682.02908      32313.227      33604.438     -3658.9447    
    158900   300.83171      698.34926      32335.012      33642.235     -3645.1452    
    159000   296.62438      699.0592       32381.312      33680.73      -3647.7411    
    159100   296.31531      680.14131      32439.174      33719.049     -3670.2553    
    159200   309.14588      693.65689      32437.825      33757.184     -3657.6023    
    159300   303.19604      710.51258      32471.422      33795.594     -3646.5069    
    159400   307.33608      690.20519      32521.783      33834.027     -3679.9897    
    159500   297.60225      699.49682      32570.61       33872.444     -3673.226     
    159600   293.99044      727.34732      32587.438      33909.813     -3648.4208    
    159700   301.13514      697.81692      32643.455      33950.761     -3683.5772    
    159800   311.19964      685.92429      32673.009      33988.792     -3691.3345    
    159900   304.77138      721.70187      32687.37       34025.921     -3658.3497    
    160000   287.72005      709.53574      32773.992      34065.865     -3673.2497    
    160100   300.73246      679.00796      32816.651      34104.332     -3704.4325    
    160200   304.92213      696.82689      32828.748      34142.729     -3687.2071    
    160300   287.402        723.22709      32876.894      34181.815     -3672.3981    
    160400   313.41291      694.08049      32891.292      34219.711     -3704.3292    
    160500   299.63537      693.09585      32959.71       34259.259     -3707.096     
    160600   296.83003      731.55555      32964.804      34297.135     -3676.4685    
    160700   307.85734      702.40435      33009.992      34335.49      -3712.2209    
    160800   292.6021       691.6972       33091.865      34375.78      -3723.4716    
    160900   308.65934      730.64933      33059.698      34415.065     -3687.4173    
    161000   303.27197      713.55913      33125.351      34452.723     -3714.6647    
    161100   301.74922      685.75936      33193.735      34490.225     -3734.6374    
    161200   305.53092      726.3163       33184.306      34529.008     -3698.4909    
    161300   302.44119      710.0966       33246.25       34568.478     -3716.4903    
    161400   299.05359      676.86528      33327.252      34609.393     -3748.2118    
    161500   289.9106       721.91663      33338.703      34647.39      -3717.422     
    161600   303.23842      728.01249      33343.342      34685.1       -3709.3108    
    161700   295.52013      695.04947      33432.451      34725.625     -3753.3637    
    161800   306.35443      717.17155      33425.553      34762.777     -3732.3649    
    161900   292.42426      737.65965      33474.428      34803.946     -3716.4122    
    162000   289.43742      707.74504      33549.146      34842.703     -3752.9727    
    162100   295.95058      704.8033       33577.714      34881.512     -3753.2441    
    162200   290.98855      717.0655       33614.19       34920.208     -3736.4393    
    162300   298.45231      704.85109      33649.974      34958.883     -3752.3618    
    162400   305.35966      697.5239       33683.013      34998.576     -3763.3447    
    162500   299.57762      711.1459       33720.837      35038.319     -3752.116     
    162600   298.1294       711.68406      33763.172      35078.261     -3757.4971    
    162700   300.8241       703.30231      33803.981      35116.142     -3768.9338    
    162800   302.18383      717.248        33824.956      35153.815     -3761.4576    
    162900   303.38371      727.83835      33853.033      35194.91      -3756.3256    
    163000   299.45274      712.99471      33914.933      35234.011     -3777.6704    
    163100   307.77993      709.48166      33941.605      35274.025     -3778.3395    
    163200   301.14212      731.82135      33971.063      35312.387     -3761.667     
    163300   295.51255      718.2126       34036.537      35352.858     -3785.6661    
    163400   294.21823      708.06666      34090.313      35393.869     -3794.1291    
    163500   288.17334      733.16944      34115.089      35431.513     -3770.1897    
    163600   312.99489      724.50692      34113.007      35471.006     -3783.356     
    163700   305.79484      704.51885      34187.337      35510.776     -3807.3299    
    163800   295.11517      729.01606      34223.685      35550.006     -3790.2856    
    163900   297.35425      743.4464       34243.357      35588.639     -3782.5883    
    164000   298.05102      715.57592      34311.325      35630.147     -3811.4377    
    164100   304.88846      731.05897      34321.401      35669.545     -3802.4477    
    164200   300.46135      753.5795       34346.796      35708.5       -3785.3126    
    164300   299.80365      720.35424      34420.181      35747.329     -3817.1328    
    164400   295.63332      721.95122      34466.082      35786.386     -3817.9968    
    164500   298.32514      739.13931      34484.092      35827.033     -3794.1282    
    164600   295.85554      718.75886      34549.923      35867.485     -3824.3002    
    164700   302.25104      706.00411      34589.268      35907.019     -3833.3202    
    164800   303.85961      739.07759      34593.058      35947.138     -3806.1136    
    164900   303.41281      723.48255      34649.432      35987.013     -3829.5939    
    165000   309.47501      709.40738      34690.21       36025.986     -3847.1257    
    165100   294.22934      742.59026      34729.422      36067.524     -3819.554     
    165200   304.68252      741.97184      34746.828      36105.468     -3821.9113    
    165300   302.05503      707.14823      34826.71       36145.208     -3863.1117    
    165400   297.05923      730.65552      34854.036      36185.931     -3840.9732    
    165500   302.54414      753.61026      34859.972      36225.923     -3820.2529    
    165600   296.66057      712.8658       34952.389      36265.687     -3860.5765    
    165700   284.24745      715.98036      35016.278      36307.567     -3862.0543    
    165800   301.41239      748.37213      34987.579      36346.001     -3830.6083    
    165900   306.29093      721.86851      35043.223      36385.015     -3861.7179    
    166000   298.21326      717.12107      35103.249      36423.945     -3867.1994    
    166100   302.66554      739.08128      35113.333      36465         -3850.3204    
    166200   293.84472      731.3629       35180.202      36506.298     -3863.5734    
    166300   307.48121      726.52885      35198.846      36547.707     -3871.6404    
    166400   303.32284      735.35058      35237.544      36586.811     -3870.3754    
    166500   300.01354      733.73471      35285.851      36626.805     -3866.3801    
    166600   302.46774      720.14516      35335.046      36667.377     -3885.1555    
    166700   303.60608      721.3795       35369.972      36705.841     -3878.3774    
    166800   303.62427      738.59027      35395.572      36748.688     -3868.6615    
    166900   290.90391      719.64447      35479.279      36787.704     -3897.6928    
    167000   296.78308      715.84019      35510.995      36827.515     -3901.613     
    167100   296.61429      754.04253      35514.691      36869.071     -3872.4715    
    167200   291.16522      750.05641      35569.75       36909.116     -3887.9634    
    167300   293.97137      723.975        35632.179      36951.143     -3920.4065    
    167400   302.20444      747.81999      35630.509      36989.982     -3896.7985    
    167500   299.95065      768.93795      35653.552      37029.581     -3881.7753    
    167600   296.06357      725.9562       35745.214      37070.394     -3926.3527    
    167700   304.07829      731.78503      35762.53       37109.76      -3918.4283    
    167800   302.73409      768.05777      35772.061      37152.843     -3888.5154    
    167900   300.86644      738.45407      35844.518      37191.916     -3921.5433    
    168000   293.99334      724.88269      35914.129      37234.046     -3933.775     
    168100   301.72364      763.40371      35899.81       37273.893     -3903.7012    
    168200   302.294        747.55388      35955.367      37314.755     -3922.8455    
    168300   306.63025      739.68947      35996.082      37356.382     -3935.8016    
    168400   298.5897       762.31224      36029.009      37395.658     -3918.4364    
    168500   300.55694      756.1884       36071.354      37435.861     -3928.7489    
    168600   311.03003      737.09157      36110.761      37477.368     -3945.2182    
    168700   299.79744      762.84171      36148.012      37517.635     -3931.5556    
    168800   296.32396      767.13232      36192.439      37559.322     -3925.7818    
    168900   300.29592      736.94258      36255.293      37600.026     -3960.8631    
    169000   311.92042      735.72057      36273.17       37640.208     -3953.1426    
    169100   301.26909      763.97014      36308.513      37682.243     -3928.8467    
    169200   302.23015      741.4313       36368.157      37721.293     -3962.4733    
    169300   305.46257      732.53287      36411.469      37762.249     -3967.9826    
    169400   303.36911      765.849        36423.938      37803.797     -3942.4342    
    169500   294.7661       759.06604      36488.455      37844.119     -3957.5618    
    169600   307.40899      740.68107      36521.502      37884.369     -3979.8594    
    169700   299.29149      758.05881      36563.828      37927.644     -3965.7016    
    169800   304.40844      764.78247      36585.625      37966.521     -3961.7861    
    169900   293.3588       740.81047      36675.275      38009.835     -3984.0693    
    170000   297.09158      745.63641      36704.564      38051.505     -3979.6219    
    170100   294.36442      752.20293      36742.433      38090.42      -3979.6843    
    170200   305.06786      736.31641      36778.303      38132.068     -3992.4929    
    170300   302.43759      746.36948      36814.276      38172.77      -3988.9131    
    170400   290.31751      757.80726      36869.941      38215.342     -3982.2898    
    170500   299.67623      752.84537      36896.896      38256.277     -3997.0599    
    170600   307.35525      747.3589       36927.267      38296.703     -4002.6223    
    170700   298.78058      762.23633      36971.057      38338.016     -3991.9086    
    170800   302.48326      760.12936      37006.723      38379.07      -3994.8219    
    170900   297.60894      741.32149      37077.685      38421.358     -4017.1211    
    171000   287.61738      748.18038      37133.393      38463.702     -4012.7331    
    171100   305.39146      764.31705      37122.885      38505.305     -3992.3116    
    171200   302.98573      742.25727      37188.661      38544.153     -4024.9798    
    171300   301.94999      733.37213      37240.382      38584.892     -4032.2957    
    171400   298.31837      767.15489      37257.957      38628.9       -4003.6193    
    171500   296.58892      763.14556      37305.827      38669.26      -4020.0984    
    171600   295.2435       753.35658      37361.116      38712.037     -4038.1795    
    171700   300.81952      780.736        37362.304      38751.889     -4016.7975    
    171800   298.65651      774.7961       37415.053      38794.321     -4025.7869    
    171900   300.74884      750.95045      37475.884      38835.542     -4046.6613    
    172000   308.4607       774.9298       37478.236      38877.481     -4024.2067    
    172100   294.72653      775.46926      37547.35       38919.337     -4033.4225    
    172200   305.60726      740.66484      37599.512      38958.717     -4061.1568    
    172300   306.92441      772.20849      37607.473      39000.888     -4037.2684    
    172400   298.56049      784.91007      37654.213      39043.401     -4032.8709    
    172500   294.99729      749.96677      37737.998      39085.031     -4074.1182    
    172600   296.10351      770.09806      37759.148      39128.55      -4059.8284    
    172700   304.29262      803.14105      37749.511      39168.531     -4030.4261    
    172800   303.07352      766.60785      37830.744      39210.763     -4070.5527    
    172900   287.41668      750.91143      37921.011      39253.645     -4089.6353    
    173000   302.72701      796.01701      37885.497      39294.224     -4048.7849    
    173100   300.38702      777.71564      37951.4        39337.09      -4060.64      
    173200   304.07639      748.67992      38012.585      39376.706     -4092.6218    
    173300   303.63157      770.05177      38035.87       39420.463     -4073.9588    
    173400   286.46336      781.8208       38102.745      39464.359     -4067.7839    
    173500   302.4934       752.92754      38138.996      39504.161     -4098.8829    
    173600   304.4711       763.35454      38167.273      39546.868     -4086.54      
    173700   304.90197      786.26997      38184.446      39587.829     -4075.2809    
    173800   297.17203      764.8633       38263.715      39630.045     -4101.9256    
    173900   299.43784      766.88016      38299.233      39672.167     -4102.8849    
    174000   292.51302      785.61891      38336.474      39714.131     -4082.5553    
    174100   301.48711      768.96291      38377.952      39757.116     -4100.6168    
    174200   297.04269      750.51392      38447.982      39799.702     -4120.7458    
    174300   299.76723      777.01714      38459.685      39843.422     -4094.5468    
    174400   303.55363      785.84521      38482.786      39883.015     -4092.5246    
    174500   296.69223      748.7827       38575.819      39925.098     -4129.1978    
    174600   308.69838      764.85259      38578.579      39968.228     -4122.3449    
    174700   306.14364      800.18488      38590.179      40009.989     -4092.3647    
    174800   289.93847      775.45639      38691.066      40053.349     -4125.9109    
    174900   298.84228      745.03769      38744.683      40094.568     -4154.1452    
    175000   295.90766      784.50387      38753.565      40136.977     -4117.2969    
    175100   302.03964      786.45575      38782.849      40180.624     -4115.6263    
    175200   296.24122      747.66017      38873.526      40220.77      -4160.4215    
    175300   305.83495      765.97446      38878.789      40263.764     -4142.66      
    175400   296.89157      799.90378      38905.438      40306.241     -4115.7516    
    175500   308.16029      767.86445      38956.486      40348.057     -4156.4514    
    175600   309.25111      772.09618      38993.147      40391.158     -4156.768     
    175700   304.3218       815.12671      39003.885      40434.95      -4124.1095    
    175800   299.44156      781.60606      39089.141      40476.808     -4161.271     
    175900   295.43856      766.80525      39154.685      40519.449     -4174.5993    
    176000   298.30328      806.49934      39151.734      40561.99      -4139.1238    
    176100   292.36666      795.74023      39218.098      40605.58      -4158.7542    
    176200   297.2874       764.00845      39283.499      40649.208     -4187.1831    
    176300   299.33442      800.41193      39284.243      40690.498     -4154.0574    
    176400   296.8933       812.31394      39318.432      40731.649     -4152.4904    
    176500   295.59667      769.09124      39407.916      40775.286     -4195.4072    
    176600   300.0992       789.67246      39421.475      40818.539     -4183.2762    
    176700   301.17487      816.07943      39437.016      40862.664     -4157.1153    
    176800   306.60714      790.51047      39492.87       40903.944     -4186.6229    
    176900   314.67206      785.96713      39523.084      40945.938     -4199.5588    
    177000   293.5125       805.04394      39589.91       40989.014     -4178.1988    
    177100   295.74471      798.60579      39635.897      41033.081     -4186.0845    
    177200   305.16287      776.80273      39680.546      41074.989     -4205.6188    
    177300   300.68679      793.19744      39716.726      41118.504     -4190.6732    
    177400   291.24982      790.13165      39782.404      41162.016     -4195.1203    
    177500   285.50667      779.64299      39847.62       41205.12      -4218.3683    
    177600   310.44621      787.99708      39830.896      41247.227     -4205.1399    
    177700   300.5408       799.66692      39883.779      41291.732     -4199.6414    
    177800   294.12475      790.60436      39948.793      41334.697     -4220.4429    
    177900   304.66407      783.14012      39976.146      41375.917     -4220.5176    
    178000   309.40271      801.61611      39991.902      41419.74      -4207.8824    
    178100   297.47514      786.70981      40073.443      41462.234     -4222.9686    
    178200   285.20235      772.59256      40157.337      41507.171     -4243.8077    
    178300   295.76147      790.47497      40160.616      41549.704     -4223.9439    
    178400   305.47722      800.11108      40173.798      41592.186     -4219.1773    
    178500   304.27126      778.08147      40242.406      41636.323     -4247.8574    
    178600   302.60881      785.24961      40282.122      41679.843     -4245.0566    
    178700   308.6943       813.75779      40282.849      41721.394     -4225.3973    
    178800   298.70112      798.81028      40363.309      41766.682     -4240.5432    
    178900   293.59078      784.14609      40430.807      41809.172     -4262.9924    
    179000   298.51713      803.55643      40444.204      41851.95      -4241.396     
    179100   293.12225      812.4457       40491.15       41896.866     -4241.1979    
    179200   297.963        777.77059      40559.245      41940.084     -4274.9118    
    179300   296.08914      797.55145      40586.2        41983.027     -4256.3794    
    179400   308.24176      812.02925      40590.449      42026.35      -4245.4822    
    179500   308.64616      778.1598       40666.733      42069.583     -4284.7602    
    179600   313.67432      795.25698      40681.813      42111.937     -4271.0396    
    179700   301.04847      828.21203      40719.196      42156.721     -4246.8988    
    179800   302.98815      799.02597      40788.901      42201.166     -4283.1378    
    179900   303.45647      787.65217      40842.01       42243.849     -4290.7165    
    180000   302.27559      835.59531      40841.024      42288.416     -4256.0231    
    180100   298.83629      804.2599       40922.417      42331.512     -4284.6829    
    180200   304.71486      779.35003      40978.551      42374.635     -4309.8415    
    180300   296.07754      824.32139      40995.478      42419.052     -4274.2842    
    180400   300.52064      822.34683      41032.096      42462.688     -4281.0941    
    180500   304.62822      781.6512       41108.359      42506.569     -4320.7741    
    180600   293.26614      817.54758      41138.493      42549.603     -4296.9028    
    180700   301.06485      836.03987      41147.655      42593.041     -4285.7984    
    180800   304.38498      804.48232      41217.048      42637.596     -4316.1121    
    180900   305.3809       815.99278      41247.743      42681.818     -4314.9213    
    181000   304.58403      832.13127      41275.325      42723.925     -4293.7502    
    181100   289.21852      805.04493      41380.179      42770.593     -4317.7394    
    181200   297.92389      791.53818      41417.983      42812.51      -4336.3238    
    181300   300.98982      813.85794      41434.119      42857.172     -4313.2205    
    181400   304.62579      829.60111      41454.986      42901.141     -4308.8453    
    181500   287.96141      799.72987      41562.687      42945.242     -4343.8219    
    181600   296.36513      807.02639      41582.375      42989.236     -4341.07      
    181700   293.93105      834.77563      41604.118      43033.801     -4312.6799    
    181800   300.99903      813.40499      41654.962      43077.58      -4335.9781    
    181900   306.05956      787.63996      41714.534      43121.629     -4358.9053    
    182000   292.93757      818.62049      41755.753      43167.271     -4331.7385    
    182100   302.3382       823.66575      41774.22       43209.809     -4331.0208    
    182200   298.47184      783.88797      41866.341      43254.327     -4369.9069    
    182300   305.05517      810.39464      41870.127      43297.944     -4350.7975    
    182400   300.26345      837.68737      41896.503      43341.914     -4329.8015    
    182500   300.87614      803.79164      41974.884      43387.64      -4369.9195    
    182600   299.49167      801.21669      42024.032      43431.411     -4377.4697    
    182700   293.86385      840.18071      42039.23       43474.182     -4342.4075    
    182800   299.65118      816.7676       42096.14       43519.392     -4368.1721    
    182900   310.08859      791.97587      42144.207      43563.793     -4393.6532    
    183000   288.4245       832.42106      42192.966      43609.149     -4361.4837    
    183100   304.6415       827.88958      42208.06       43652.534     -4364.4664    
    183200   304.07648      784.05175      42296.628      43696.121     -4409.836     
    183300   303.08432      813.93556      42314          43741.369     -4382.5362    
    183400   304.8702       852.3882       42317.234      43786.67      -4356.5269    
    183500   298.47879      807.43641      42419.355      43830.904     -4407.1272    
    183600   303.96192      804.7567       42455.453      43875.419     -4410.7847    
    183700   288.83813      856.33965      42479.877      43920.816     -4369.6248    
    183800   302.90729      827.82112      42523.936      43964.832     -4393.0973    
    183900   295.97724      793.89675      42616.133      44009.079     -4432.3497    
    184000   303.88469      837.48695      42601.955      44054.495     -4391.1       
    184100   294.28078      846.43247      42655.695      44097.743     -4390.2566    
    184200   304.58415      805.83246      42720.571      44142.872     -4431.1692    
    184300   301.52589      834.59468      42742.82       44187.694     -4414.0883    
    184400   299.78604      858.42653      42767.256      44232.44      -4395.1785    
    184500   312.2955       818.18442      42828.035      44278.296     -4428.9158    
    184600   306.61546      823.90011      42877.632      44322.113     -4435.346     
    184700   295.05439      846.32537      42922.273      44365.78      -4412.0225    
    184800   308.49339      835.4847       42951.791      44411.657     -4427.4745    
    184900   290.93139      819.81768      43048.141      44456.795     -4448.1418    
    185000   302.66799      830.68574      43058.662      44501.939     -4428.0433    
    185100   300.93682      839.03287      43098.211      44546.331     -4422.8299    
    185200   290.24737      821.27022      43182.675      44591.397     -4453.9781    
    185300   306.62359      820.39262      43194.646      44635.636     -4453.3566    
    185400   304.33929      854.23739      43210.749      44680.96      -4425.501     
    185500   292.42162      845.56747      43289.201      44726.621     -4445.324     
    185600   289.40968      811.00394      43375.426      44772.187     -4481.3752    
    185700   303.90831      835.09406      43366.658      44816.854     -4453.4221    
    185800   297.66558      858.57387      43399.873      44860.913     -4439.7244    
    185900   293.52302      810.58942      43502.034      44906.705     -4481.279     
    186000   291.17869      819.02368      43544.142      44952.502     -4477.326     
    186100   302.92534      848.93609      43536.28       44998.328     -4448.7735    
    186200   295.79141      824.35744      43619.176      45042.206     -4480.666     
    186300   301.42624      817.847        43660.013      45087.938     -4492.0868    
    186400   290.66758      855.76728      43687.963      45132.033     -4461.9932    
    186500   297.30876      837.77244      43739.999      45179.516     -4480.777     
    186600   303.52722      815.14217      43794.414      45223.887     -4510.1037    
    186700   297.44661      852.66855      43814.016      45268.707     -4474.7128    
    186800   300.43482      852.92048      43853.811      45314.802     -4475.5281    
    186900   294.28108      813.90443      43950.006      45359.527     -4520.8036    
    187000   310.93993      827.20608      43948.398      45404.937     -4500.3766    
    187100   290.53875      870.3672       43992.591      45451         -4477.2306    
    187200   304.10951      831.35134      44049.025      45495.885     -4515.347     
    187300   294.96197      826.39787      44115.766      45539.158     -4526.3407    
    187400   292.82849      875.20352      44119.2        45587.079     -4489.7955    
    187500   297.01134      852.59913      44178.951      45632.692     -4508.5821    
    187600   313.42454      815.72611      44227.505      45677.593     -4542.6447    
    187700   298.10181      851.87134      44269.646      45724.866     -4511.2861    
    187800   298.06468      858.34288      44306.148      45767.765     -4506.0065    
    187900   307.8347       823.73293      44368.051      45814.832     -4543.9583    
    188000   309.45631      849.60924      44384.014      45859.954     -4530.1647    
    188100   301.27343      871.13843      44425.585      45906.492     -4512.221     
    188200   297.56803      840.37732      44509.566      45952.212     -4546.1485    
    188300   305.70858      842.06609      44536.084      45996.895     -4551.364     
    188400   306.68908      863.66         44559.692      46044.082     -4522.7243    
    188500   295.42161      849.7962       44642.219      46089.94      -4544.1336    
    188600   298.27974      827.02675      44703.712      46134.448     -4567.7792    
    188700   308.89238      847.63372      44708.147      46180.97      -4546.3742    
    188800   302.66178      866.8312       44747.312      46226.722     -4535.0465    
    188900   304.71373      835.7618       44819.443      46271.936     -4570.1393    
    189000   297.76969      837.31389      44878.987      46318.978     -4575.8686    
    189100   302.54193      872.71282      44878.762      46363.81      -4543.9445    
    189200   316.38909      861.68092      44907.748      46409.791     -4558.0453    
    189300   304.11083      834.09816      45006.807      46456.416     -4589.5687    
    189400   289.21052      864.38657      45052.689      46502.428     -4568.5272    
    189500   302.90666      874.4225       45060.729      46548.226     -4555.5339    
    189600   296.42432      835.14917      45160.313      46595.416     -4594.3066    
    189700   310.33656      841.70071      45170.172      46639.985     -4592.4483    
    189800   295.77612      881.86046      45207.197      46687.7       -4560.4477    
    189900   301.95485      855.00283      45267.037      46733.188     -4588.4811    
    190000   304.97236      828.20184      45332.997      46778.453     -4618.7836    
    190100   304.05945      879.62003      45329.642      46824.669     -4575.7767    
    190200   292.49288      884.52118      45396.219      46872.737     -4582.4387    
    190300   294.94661      829.6047       45490.902      46917.47      -4631.4745    
    190400   294.12615      856.15566      45512.965      46964.423     -4604.1251    
    190500   296.07857      886.26118      45525.614      47011.129     -4582.9207    
    190600   303.55847      842.26435      45599.811      47056.469     -4629.5114    
    190700   306.59115      841.76016      45640.591      47102.883     -4633.0786    
    190800   290.0392       899.52242      45662.578      47149.131     -4589.2141    
    190900   295.22382      869.36373      45729.578      47196.466     -4619.7921    
    191000   294.5742       839.66116      45806.042      47241.912     -4653.3945    
    191100   287.45715      886.31292      45821.252      47289.37      -4614.9272    
    191200   309.80365      888.14389      45820.607      47335.784     -4610.5103    
    191300   300.43107      842.80679      45931.137      47382.007     -4651.6829    
    191400   304.4285       861.9377       45948.86       47426.952     -4644.7444    
    191500   298.20654      897.05584      45973.975      47474.592     -4617.071     
    191600   302.11456      868.21687      46042.69       47522.378     -4643.868     
    191700   303.11616      852.55587      46102.93       47568.983     -4667.4445    
    191800   302.49104      886.78922      46116.656      47615.678     -4633.1942    
    191900   306.20848      885.80971      46155.429      47660.995     -4635.5777    
    192000   295.02759      846.34842      46264.034      47707.51      -4680.615     
    192100   297.64217      859.06008      46292.842      47754.321     -4662.2332    
    192200   284.96326      888.17645      46338.714      47803.648     -4640.2562    
    192300   307.57362      858.97976      46366.059      47847.559     -4665.0646    
    192400   306.72868      840.07293      46432.83       47893.713     -4686.6963    
    192500   311.1175       876.41204      46436.044      47942.149     -4657.1531    
    192600   299.62658      877.06389      46505.967      47989.466     -4661.2925    
    192700   297.78375      843.43681      46590.694      48036.836     -4699.5926    
    192800   306.30667      868.82849      46593.59       48082.374     -4679.698     
    192900   297.26261      890.02117      46637.209      48128.881     -4664.8147    
    193000   305.66746      852.97756      46704.8        48176.439     -4697.3078    
    193100   294.70688      845.68348      46782.835      48224.996     -4708.621     
    193200   298.20088      882.51986      46784.643      48270.712     -4675.3881    
    193300   292.82951      875.59498      46850.365      48318.638     -4689.2962    
    193400   311.85072      845.01976      46886.969      48363.165     -4726.465     
    193500   304.04542      885.20675      46910.65       48411.236     -4695.5753    
    193600   298.86623      908.19768      46945.55       48458.644     -4676.929     
    193700   298.13411      857.39452      47045.179      48505.988     -4729.9082    
    193800   301.42721      863.76688      47078.875      48552.721     -4723.8479    
    193900   298.72415      911.71119      47084.571      48600.891     -4684.7802    
    194000   300.60189      872.64587      47166.045      48647.1       -4721.1189    
    194100   305.58952      842.96468      47231.87       48693.338     -4749.7509    
    194200   298.60159      903.11928      47234.339      48741.819     -4707.005     
    194300   297.85241      902.61544      47283.707      48789.166     -4707.2655    
    194400   302.97573      852.07976      47371.304      48836.597     -4757.0442    
    194500   299.21557      883.15339      47395.025      48883.782     -4737.8155    
    194600   298.15807      905.77464      47421.778      48931.015     -4713.3887    
    194700   303.18043      870.49887      47496.093      48980.22      -4747.9761    
    194800   292.54561      867.88749      47565.532      49025.523     -4756.6823    
    194900   301.938        897.05011      47564.923      49073.087     -4733.4242    
    195000   304.8729       889.89921      47613.628      49120.581     -4746.6492    
    195100   294.88349      878.74526      47692.8        49168.381     -4766.6835    
    195200   297.71286      892.18314      47721.093      49215.838     -4753.6597    
    195300   299.80549      897.48909      47759.617      49263.903     -4750.2551    
    195400   297.34893      880.18774      47828.803      49310.816     -4776.6821    
    195500   304.60438      879.22421      47861.585      49357.319     -4775.3131    
    195600   308.72006      905.49212      47875.573      49405.905     -4752.9246    
    195700   290.65456      888.53414      47977.071      49453.882     -4773.9831    
    195800   307.1647       871.8315       48007.691      49501.215     -4792.3086    
    195900   309.78989      902.26556      48019.57       49548.841     -4773.7214    
    196000   306.87578      906.49715      48067.972      49595.577     -4770.3551    
    196100   282.43874      881.87948      48192.256      49645.783     -4800.6203    
    196200   299.27415      891.30199      48195.919      49692.942     -4795.4891    
    196300   305.4779       907.02646      48214.721      49740.026     -4776.7282    
    196400   299.22535      890.25739      48291.09       49786.971     -4794.3777    
    196500   278.67953      877.69791      48393.856      49835.593     -4814.9489    
    196600   303.22151      894.45083      48374.568      49882.73      -4791.107     
    196700   309.23888      896.66558      48409.92       49932.475     -4797.8833    
    196800   297.9576       884.68834      48491.532      49979.277     -4824.035     
    196900   303.1894       901.85389      48510.225      50025.725     -4807.7583    
    197000   308.48523      910.12525      48539.454      50073.944     -4801.6109    
    197100   302.02496      881.9643       48629.373      50122.627     -4828.5497    
    197200   288.60185      881.37972      48707.671      50173.172     -4833.035     
    197300   291.2925       910.99554      48719.409      50219.972     -4803.6146    
    197400   301.06127      888.2305       48769.433      50267.003     -4827.6661    
    197500   298.18942      871.29806      48839.499      50314.324     -4851.5976    
    197600   297.68495      913.40267      48847.198      50363.106     -4820.1679    
    197700   302.27632      920.54357      48880.216      50412.558     -4819.4816    
    197800   311.11045      874.84102      48955.495      50460.014     -4858.5528    
    197900   298.29117      891.76222      49012.955      50508.45      -4854.4503    
    198000   295.98801      927.66364      49029.202      50555.937     -4824.7337    
    198100   298.12045      891.84315      49109.427      50604.657     -4853.5123    
    198200   287.10697      877.4918       49195.956      50654.544     -4877.0964    
    198300   301.13712      912.22011      49180.994      50702.707     -4842.8298    
    198400   309.87877      906.27869      49216.111      50749.575     -4851.412     
    198500   303.08521      887.22107      49296.241      50796.897     -4881.3553    
    198600   301.61008      908.72409      49326.97       50846.144     -4862.538     
    198700   298.28366      925.90302      49365.929      50895.549     -4852.6487    
    198800   304.0473       890.37291      49438.027      50943.783     -4885.1677    
    198900   291.1176       890.01055      49512.168      50991.391     -4890.3277    
    199000   311.30644      925.92344      49484.379      51040.377     -4854.2185    
    199100   312.83669      899.91144      49554.692      51087.776     -4880.0534    
    199200   294.63233      874.07535      49667.765      51138.167     -4910.906     
    199300   302.16323      919.68798      49656.634      51187.891     -4878.7509    
    199400   290.28712      937.53499      49709.593      51234.661     -4870.2484    
    199500   310.17325      891.1381       49764.529      51283.448     -4910.5073    
    199600   303.85159      897.35941      49818.085      51330.431     -4911.9423    
    199700   289.56622      934.44178      49861.537      51382.052     -4879.9497    
    199800   293.97661      912.24996      49922.662      51429.912     -4899.6517    
    199900   296.45262      885.31937      49992.16       51477.491     -4932.9423    
    200000   311.1931       917.18335      49979.848      51526.877     -4905.0298    
    200100   286.18059      937.15635      50059.467      51575.844     -4894.1969    
    200200   309.82861      906.70774      50090.583      51624.374     -4932.4042    
    200300   297.47518      907.30909      50165.304      51674.694     -4935.0024    
    200400   289.00399      942.79556      50195.485      51723.216     -4902.237     
    200500   300.30234      911.83222      50250.367      51770.002     -4931.0533    
    200600   294.69507      883.87834      50338.653      51818.985     -4958.3725    
    200700   312.87884      929.90196      50304.902      51868.062     -4920.7314    
    200800   294.52006      940.07529      50381.933      51918.108     -4919.6377    
    200900   299.48632      893.95456      50466.129      51966.235     -4967.1586    
    201000   302.58501      914.15314      50488.286      52014.862     -4955.3095    
    201100   302.83129      961.00153      50489.202      52063.125     -4916.7596    
    201200   294.90788      921.54071      50595.47       52113.896     -4954.5913    
    201300   290.58364      890.2186       50685.505      52163.857     -4982.9156    
    201400   306.50271      932.41241      50659.243      52212.008     -4938.8498    
    201500   294.85936      933.92386      50729.56       52260.27      -4938.4434    
    201600   294.05002      890.65835      50824.3        52310.107     -4989.7119    
    201700   294.55744      904.09318      50858.862      52359.131     -4980.05      
    201800   297.28314      953.5045       50852.933      52408.13      -4945.1628    
    201900   301.4203       925.84216      50920.996      52456.904     -4974.771     
    202000   300.68864      904.09108      50993.751      52506.427     -4994.8238    
    202100   297.75795      933.55376      51020.118      52556.325     -4969.9915    
    202200   298.88797      929.60896      51070.682      52605.231     -4969.455     
    202300   298.36315      894.27677      51156.9        52655.054     -5003.4596    
    202400   307.69565      912.83424      51168.646      52704.247     -4987.0682    
    202500   307.55692      941.36958      51188.615      52752.47      -4971.0569    
    202600   299.78957      914.21501      51281.739      52802.719     -5007.1778    
    202700   298.44783      920.06232      51328.816      52852.928     -5010.2862    
    202800   312.07323      960.5593       51309.286      52901.473     -4978.3111    
    202900   295.81193      935.34588      51418.541      52952.602     -4999.1186    
    203000   298.95121      901.23036      51495.024      53001.323     -5032.3442    
    203100   300.07635      918.86133      51524.705      53050.912     -5014.7756    
    203200   300.66084      942.7444       51548.167      53099.44      -4992.7609    
    203300   303.9506       921.43658      51612.938      53149.562     -5022.0163    
    203400   302.94681      902.47275      51681.871      53197.499     -5041.3176    
    203500   291.4548       945.70651      51714.567      53250.169     -5014.79      
    203600   291.16259      950.04916      51759.464      53298.818     -5014.2993    
    203700   301.28721      910.04981      51828.832      53348.678     -5047.8983    
    203800   303.95404      916.31852      51866.047      53397.559     -5038.1537    
    203900   308.45189      939.61196      51884.184      53448.093     -5022.6257    
    204000   304.41047      915.96058      51965.556      53497.635     -5048.3616    
    204100   300.07985      915.20544      52024.997      53547.556     -5055.0396    
    204200   302.88145      950.17009      52034.306      53597.499     -5032.2765    
    204300   296.86431      938.14144      52108.363      53647.349     -5047.9486    
    204400   304.71065      910.3207       52170.626      53697.672     -5077.3696    
    204500   285.44868      941.91961      52227.569      53747.229     -5050.5658    
    204600   288.5031       954.21035      52259.552      53797.684     -5043.9391    
    204700   304.13999      913.41717      52316.944      53845.932     -5084.0536    
    204800   310.87998      922.38251      52344.679      53896.273     -5075.9027    
    204900   289.84665      972.34504      52388.477      53947.463     -5051.1375    
    205000   311.4171       956.20183      52410.17       53996.671     -5070.8281    
Loop time of 216.205 on 1 procs for 200000 steps with 700 atoms

Performance: 79.924 ns/day, 0.300 hours/ns, 925.050 timesteps/s, 647.535 katom-step/s
99.8% CPU use with 1 MPI tasks x 1 OpenMP threads

MPI task timing breakdown:
Section |  min time  |  avg time  |  max time  |%varavg| %total
---------------------------------------------------------------
Pair    | 102.14     | 102.14     | 102.14     |   0.0 | 47.24
Bond    | 112.3      | 112.3      | 112.3      |   0.0 | 51.94
Neigh   | 0.011229   | 0.011229   | 0.011229   |   0.0 |  0.01
Comm    | 0.018034   | 0.018034   | 0.018034   |   0.0 |  0.01
Output  | 0.12606    | 0.12606    | 0.12606    |   0.0 |  0.06
Modify  | 1.4071     | 1.4071     | 1.4071     |   0.0 |  0.65
Other   |            | 0.1957     |            |       |  0.09

Nlocal:            700 ave         700 max         700 min
Histogram: 1 0 0 0 0 0 0 0 0 0
Nghost:              0 ave           0 max           0 min
Histogram: 1 0 0 0 0 0 0 0 0 0
Neighs:          81999 ave       81999 max       81999 min
Histogram: 1 0 0 0 0 0 0 0 0 0

Total # of neighbors = 81999
Ave neighs/atom = 117.14143
Ave special neighs/atom = 17.428571
Neighbor list builds = 10
Dangerous builds = 0
Total wall time: 0:03:41
