# Molecular Dynamics - Input Script for Evaluation of H2O Solvated PEG Deformation

# 1) Initialization
units real
atom_style full
bond_style harmonic
angle_style harmonic
dihedral_style harmonic
pair_style lj/cut/coul/long 12
kspace_style pppm 1e-5
special_bonds lj 0.0 0.0 0.5 coul 0.0 0.0 1.0 angle yes dihedral yes
variable force_0 equal 5

# 2) System Definition
read_data ../data/raw/topology/solvated_PEG.data
Reading data file ...
  orthogonal box = (-31.663216 -11.265857 -11.265857) to (31.663216 11.265857 11.265857)
  1 by 1 by 1 MPI processor grid
  reading atoms ...
  3077 atoms
  reading velocities ...
  3077 velocities
  scanning bonds ...
  3 = max bonds/atom
  scanning angles ...
  6 = max angles/atom
  scanning dihedrals ...
  9 = max dihedrals/atom
  reading bonds ...
  2084 bonds
  reading angles ...
  1175 angles
  reading dihedrals ...
  210 dihedrals
Finding 1-2 1-3 1-4 neighbors ...
  special bond factors lj:    0        0        0.5     
  special bond factors coul:  0        0        1       
     4 = max # of 1-2 neighbors
     6 = max # of 1-3 neighbors
    12 = max # of 1-4 neighbors
  2350 = # of 1-3 neighbors before angle trim
  2350 = # of 1-3 neighbors after angle trim
  2546 = # of 1-4 neighbors before dihedral trim
  420 = # of 1-4 neighbors after dihedral trim
    14 = max # of special neighbors
  special bonds CPU = 0.001 seconds
  read_data CPU = 0.016 seconds

# 3) Simulation Settings
include ../data/parameters/H2O-PEG-parameters.lammps
# LAMMPS input script by Simon Gravelle
# This input is part of a tutorial from https://lammpstutorials.github.io
# Last tested using the 2Aug2023 stable LAMMPS version
# This file was released under the GNU general public license v3.0

mass 1 15.9994 # PEG O (GROMOS 54A7)
mass 2 12.011 # PEG C (GROMOS 54A7)
mass 3 1.008 # PEG H (GROMOS 54A7)
mass 4 1.008 # PEG H (GROMOS 54A7)
mass 5 12.011 # PEG C (GROMOS 54A7)
mass 6 15.9994 # PEG O (GROMOS 54A7)
mass 7 15.9994 # PEG O (GROMOS 54A7)
mass 8 15.9994 # H2O O (SPC/Fw)
mass 9 1.008 # H2O H (SPC/Fw)

pair_coeff 1 1 0.2526 2.8492 # PEG O (GROMOS 54A7)
pair_coeff 2 2 0.0663 3.5812 # PEG C (GROMOS 54A7)
pair_coeff 3 3 0.0283 2.3734 # PEG H (GROMOS 54A7)
pair_coeff 4 4 0.0 0.0 # PEG H (GROMOS 54A7)
pair_coeff 5 5 0.2450 2.8114 # PEG C (GROMOS 54A7)
pair_coeff 6 6 0.1195 3.1000 # PEG O (GROMOS 54A7)
pair_coeff 7 7 0.1195 3.1000 # PEG O (GROMOS 54A7)
pair_coeff 8 8 0.155 3.165  # H2O O (SPC/Fw)
pair_coeff 9 9 0.0 0.0 # H2O H (SPC/Fw)

bond_coeff 1 1109.2926 1.12
bond_coeff 2 399.7916 1.43
bond_coeff 3 299.8440 1.52
bond_coeff 4 400.0343 1.53
bond_coeff 5 310.7075 1.41
bond_coeff 6 179.2543 0.971
bond_coeff 7 1059.162 1.012 # H2O O-H (SPC/Fw)

angle_coeff 1 47.6940 109.5
angle_coeff 2 55.1271 109.5
angle_coeff 3 47.6350 109.6
angle_coeff 4 55.1139 111.0
angle_coeff 5 54.9931 110.3
angle_coeff 6 180.4602 109.0
angle_coeff 7 30.1731 110.0
angle_coeff 8 75.90 113.24 # H2O H-O-H (SPC/Fw)

dihedral_coeff 1 0.3011 1 3
dihedral_coeff 2 1.4149 1 3
dihedral_coeff 3 0.2390 -1 3
dihedral_coeff 4 0.0 1 1

group H2O type 8 9
2976 atoms in group H2O
group PEG type 1 2 3 4 5 6 7
101 atoms in group PEG

group pull_oxygen_6 type 6
1 atoms in group pull_oxygen_6
group pull_oxygen_7 type 7
1 atoms in group pull_oxygen_7

# 4) Run
dump dump_all_atoms_per_1000_timestep all atom 1000 ../data/raw/trajectory/dump_all_atoms_per_1000_timestep.lammpstrj
thermo 100

fix nvt_ensemble all nvt temp 300 300 100
timestep 1.0

compute dihedral_angles all dihedral/local phi
fix ave_dihedral_histograms all ave/histo 10 2000 30000 0 180 500 c_dihedral_angles     file ../data/raw/dihedral-vs-time/initial_dihedral.histo mode vector

run 30000
PPPM initialization ...
  using 12-bit tables for long-range coulomb (src/kspace.cpp:342)
  G vector (1/distance) = 0.25218253
  grid = 36 18 18
  stencil order = 5
  estimated absolute RMS force accuracy = 0.0028762521
  estimated relative force accuracy = 8.6617476e-06
  using double precision KISS FFT
  3d grid and FFT values/proc = 26875 11664
Generated 36 of 36 mixed pair_coeff terms from geometric mixing rule
Neighbor list info ...
  update: every = 1 steps, delay = 0 steps, check = yes
  max neighbors/atom: 2000, page size: 100000
  master list distance cutoff = 14
  ghost atom cutoff = 14
  binsize = 7, bins = 10 4 4
  1 neighbor lists, perpetual/occasional/extra = 1 0 0
  (1) pair lj/cut/coul/long, perpetual
      attributes: half, newton on
      pair build: half/bin/newton
      stencil: half/bin/3d
      bin: standard
Per MPI rank memory allocation (min/avg/max) = 33.09 | 33.09 | 33.09 Mbytes
   Step          Temp          E_pair         E_mol          TotEng         Press     
         0   295.20501     -9838.6815      1028.2575     -6103.6976     -173.18132    
       100   302.80905     -9921.072       1018.0903     -6126.5341     -1169.7092    
       200   298.19946     -9994.4963      1029.6171     -6230.6968     -881.10095    
       300   300.84117     -10010.057      981.48733     -6270.166       925.67302    
       400   301.59209     -10016.396      998.15791     -6252.9486      1282.7594    
       500   298.39205     -9959.5007      1020.8014     -6202.751      -751.23527    
       600   301.50878     -9920.5975      1028.497      -6127.575      -607.39889    
       700   306.25464     -9869.1087      1003.9556     -6057.113       1270.8673    
       800   303.63877     -9878.5448      1010.5332     -6083.9564      1337.9037    
       900   305.01321     -9994.2059      992.44768     -6205.1007     -642.12394    
      1000   302.64999     -10021.449      993.94546     -6252.5144     -1390.5761    
      1100   297.96198     -10006.854      998.24237     -6276.6065      616.24977    
      1200   300.3333      -9998.4776      974.62021     -6270.1099      1210.4919    
      1300   297.60364     -9919.0918      1006.6743     -6183.6981      242.43476    
      1400   301.38274     -9929.4339      1036.3974     -6129.6667     -1994.1253    
      1500   300.82484     -9930.9581      1017.7924     -6154.9112     -125.45898    
      1600   303.86213     -9964.4076      987.01515     -6191.2892      454.1804     
      1700   294.96769     -10001.039      980.64375     -6315.8449      329.14984    
      1800   293.38599     -10021.28       1014.87       -6316.3621     -989.85536    
      1900   298.9216      -9988.2881      985.5069      -6261.9775     -832.94385    
      2000   297.79736     -9885.2035      949.14094     -6205.5671      675.47421    
      2100   298.50667     -9886.9154      981.37531     -6168.5408      734.75666    
      2200   299.50262     -9892.8683      990.09955     -6156.6377     -567.67327    
      2300   300.32195     -9871.4735      991.37477     -6126.4553     -1468.1898    
      2400   309.61724     -9904.1181      983.06297     -6082.1834      470.42076    
      2500   302.82232     -9887.812       1034.7981     -6076.4446      7.7133991    
      2600   301.77664     -9918.5336      1008.2541     -6143.298       1015.3192    
      2700   300.34698     -9988.3375      1009.1114     -6225.3531      997.84637    
      2800   296.54324     -10020.272      1029.4821     -6271.7928      350.17355    
      2900   301.60361     -10068.979      1020.4235     -6283.161      -166.06245    
      3000   295.11137     -9947.2305      1008.1706     -6233.1922      1176.6264    
      3100   308.43186     -10014.672      1030.988      -6155.6807      956.06905    
      3200   297.03641     -9942.8271      1032.4897     -6186.8189     -426.21086    
      3300   300.51836     -9949.0917      995.47793     -6198.1694      706.18062    
      3400   289.53045     -9854.6731      1029.1687     -6170.8078      1292.4855    
      3500   309.71944     -9978.4082      1065.3546     -6073.2448     -460.20822    
      3600   302.45465     -9903.9767      1052.6412     -6078.1374     -498.2719     
      3700   300.33899     -9899.6471      1019.8299     -6126.0175     -92.671945    
      3800   299.54873     -9905.4913      1016.0243     -6142.9131      501.14919    
      3900   304.50478     -9981.6437      1027.9057     -6161.7422     -459.3777     
      4000   300.44184     -9946.6761      987.06851     -6204.8649      632.46063    
      4100   301.06848     -9970.6378      986.60757     -6223.5418     -62.470661    
      4200   293.92945     -9929.7909      988.82294     -6245.9371     -635.60352    
      4300   297.60139     -9957.8345      996.3895      -6232.7462     -1350.404     
      4400   301.63319     -9975.7782      1013.2597     -6196.8523      35.81759     
      4500   304.73872     -10003.623      1030.2781     -6179.2037      953.45433    
      4600   288.78656     -9948.7911      1054.7016     -6246.2137      449.30318    
      4700   289.62013     -10002.129      1015.3241     -6331.2863     -608.17212    
      4800   290.96724     -9958.2107      1015.3742     -6274.9661      723.66509    
      4900   299.5307      -9991.1603      1036.8415     -6207.9303      2045.8008    
      5000   296.91883     -9973.4796      1060.6717     -6190.3676     -101.76137    
      5100   298.72498     -9986.201       1077.5212     -6169.6789      48.751723    
      5200   304.31689     -9974.2311      1041.4862     -6142.472       385.38067    
      5300   296.17756     -9944.7608      1037.3302     -6191.787      -825.43642    
      5400   295.09507     -10013.66       1028.9901     -6278.9511     -1001.9721    
      5500   295.37757     -10022.952      1019.0793     -6295.5642      1647.666     
      5600   295.87449     -10014.735      1061.0669     -6240.8029      1115.7246    
      5700   301.61279     -10026.593      1058.7083     -6202.4055      165.34836    
      5800   294.17554     -9925.912       1037.4757     -6191.1491      81.367725    
      5900   303.55343     -9992.3351      1035.5303     -6173.532       857.25526    
      6000   297.04777     -9917.4027      998.58258     -6195.1975      900.48722    
      6100   305.73379     -10059.15       1001.8201     -6254.0653     -427.42096    
      6200   301.84293     -10115.898      997.32131     -6350.9873     -873.02713    
      6300   300.18648     -10106.606      984.48608     -6369.7185      395.53184    
      6400   300.05394     -10042.354      994.48067     -6296.6876      569.44034    
      6500   296.85649     -9985.6304      1008.0766     -6255.6851     -894.9073     
      6600   300.14629     -9982.7555      1015.9973     -6214.7253     -974.6326     
      6700   297.72167     -9874.4761      965.344       -6179.3305      1318.2982    
      6800   301.51908     -9883.0693      971.20154     -6147.2478      1089.9933    
      6900   312.99639     -9926.3871      988.69715     -6067.835      -1068.9774    
      7000   305.47223     -9895.2611      1002.5008     -6091.8941     -427.11565    
      7100   299.16359     -9950.7068      1011.8194     -6195.8649      335.00409    
      7200   301.90809     -10031.917      1025.6478     -6238.0827      965.92679    
      7300   300.40775     -10065.908      1033.547      -6277.9313     -870.6839     
      7400   298.27395     -10069.743      1027.8382     -6307.0395      233.26135    
      7500   298.97932     -10073.337      1035.785      -6296.2187     -750.63173    
      7600   297.49519     -9957.8512      1035.2062     -6194.92       -485.72157    
      7700   299.984       -9914.595       1027.9913     -6136.0589     -383.18501    
      7800   300.44841     -9908.0153      1007.1859     -6146.0264      715.48353    
      7900   298.60005     -9957.8447      1012.0547     -6207.9346      695.78656    
      8000   297.5392      -9958.8016      1010.616      -6220.057      -295.82614    
      8100   304.08333     -9976.6973      1050.7516     -6137.8142     -399.03467    
      8200   303.98264     -9894.1633      1006.4847     -6100.4705      472.031      
      8300   298.28124     -9887.2206      1005.2035     -6147.0849      381.04642    
      8400   300.99284     -10005.9        1012.1911     -6233.9139     -1351.1447    
      8500   296.43571     -10000.821      1036.8664     -6245.944      -664.12467    
      8600   301.39226     -9998.7384      1020.379      -6214.9023      716.02123    
      8700   301.03976     -9954.7508      993.02396     -6201.5018      1346.5356    
      8800   304.35316     -10000.277      1003.3408     -6206.3307      3.3697478    
      8900   305.26324     -10067.814      1000.1001     -6268.7638     -47.996206    
      9000   295.99723     -10048.053      980.8389      -6353.2234      1198.0405    
      9100   299.12684     -10060.818      994.40306     -6323.7298      19.164672    
      9200   299.97723     -10033.154      1028.4069     -6254.2642     -893.15446    
      9300   304.29562     -10004.658      1020.6058     -6193.9738     -647.08691    
      9400   302.55501     -9966.5268      1015.5864     -6176.822      -335.98566    
      9500   300.827       -9975.3873      999.73401     -6217.379       222.21589    
      9600   297.32552     -9983.6575      997.08004     -6260.4081     -414.15187    
      9700   294.97867     -10005.02       1027.227      -6273.1421     -482.70188    
      9800   303.61702     -10047.475      989.42093     -6274.1982      189.68478    
      9900   301.01647     -9975.9075      947.67185     -6268.2241      391.31692    
     10000   298.32407     -9986.3883      1013.2391     -6237.8242     -833.2657     
     10100   295.87465     -9927.7332      1011.7928     -6203.0741     -923.50283    
     10200   302.99644     -9893.0287      953.9935      -6160.8694      1427.8481    
     10300   306.21097     -9970.7445      993.93235     -6169.1724      851.102      
     10400   301.70002     -9968.1745      984.92603     -6216.9696     -1452.8143    
     10500   294.37125     -9963.9512      1032.816      -6232.0536     -1716.1543    
     10600   298.08753     -9888.8326      1002.9759     -6152.7005      849.74066    
     10700   306.72134     -9944.8171      1039.6942     -6092.8036      1709.0562    
     10800   298.67277     -9942.26        1059.1769     -6144.5609     -664.11312    
     10900   295.76231     -9970.447       1054.1275     -6204.4832     -1603.2389    
     11000   301.04645     -10034.483      1056.1779     -6218.0184      237.11419    
     11100   303.1184      -10025.773      1012.339      -6234.1495      306.57705    
     11200   293.29959     -9945.6751      1005.2053     -6251.2143     -918.86178    
     11300   304.26722     -9987.9651      1039.9484     -6158.1991      120.80401    
     11400   304.21986     -9954.0537      1020.892      -6143.7784     -253.80855    
     11500   292.82699     -9893.7206      1016.2584     -6192.5398      377.18589    
     11600   289.87191     -9876.4985      983.4947      -6235.1765     -151.43149    
     11700   292.74998     -9920.3396      1010.1242     -6225.9991     -537.17197    
     11800   307.0294      -9950.3171      1022.9388     -6112.2344     -791.33875    
     11900   304.40252     -9902.9138      1029.3943     -6082.4613      156.60233    
     12000   301.49416     -9878.4799      989.2014      -6124.8871      1067.8989    
     12100   301.88643     -9953.9519      990.6593      -6195.3045      1106.1016    
     12200   299.95957     -10006.464      1013.5728     -6242.5704     -1169.8421    
     12300   301.88852     -10020.617      1030.9821     -6221.6273     -824.92277    
     12400   295.6165      -9927.0428      1015.4538     -6201.0897      638.88756    
     12500   295.63223     -9900.7362      1022.5672     -6167.5255      922.11544    
     12600   300.85091     -9926.6188      1010.6738     -6157.4516     -673.84735    
     12700   296.38013     -9883.9758      1014.4221     -6152.0526      26.433848    
     12800   302.88311     -9896.5344      1010.8996     -6108.5081      1151.5109    
     12900   300.10199     -9838.4211      1041.7864     -6045.008       362.22035    
     13000   302.79079     -9883.6664      1055.3071     -6052.0791     -1440.3015    
     13100   302.3922      -9946.4981      1003.0828     -6170.7898     -348.34732    
     13200   296.36621     -9918.6152      988.81689     -6212.4249      764.55191    
     13300   294.04634     -9906.6508      1031.0578     -6179.4904      443.75386    
     13400   307.11884     -10007.4        1078.2549     -6113.1815     -1898.9668    
     13500   301.59153     -9926.661       1052.8963     -6108.4805     -298.15332    
     13600   300.19494     -9957.6872      1022.849      -6182.3593      923.56424    
     13700   297.43516     -10032.04       1025.0369     -6279.8288      253.1935     
     13800   297.38319     -10014.773      1013.1287     -6274.9459     -929.62675    
     13900   305.02847     -10063.968      1049.818      -6217.3528     -144.03558    
     14000   299.27066     -9951.8158      1032.7337     -6175.0779      1105.1863    
     14100   305.40475     -9998.1421      1063.9908     -6133.9038      1036.1655    
     14200   300.96659     -9995.8881      1057.2435     -6179.0905     -401.70669    
     14300   298.31253     -9983.1694      1002.9792     -6244.9711      212.73966    
     14400   296.19396     -9960.5937      1014.8092     -6229.9905     -143.57359    
     14500   299.40413     -9942.2852      1044.1387     -6152.9185     -1181.7963    
     14600   306.86935     -9964.944       1050.2843     -6100.9833     -704.13872    
     14700   306.40608     -9956.893       1019.3552     -6128.109       759.43145    
     14800   297.2999      -9923.9069      1038.9102     -6159.0623      1239.4996    
     14900   301.06979     -9962.3282      1044.2667     -6157.561      -845.08226    
     15000   305.94518     -9972.4442      1035.9899     -6131.2516     -317.41693    
     15100   299.38444     -9907.0487      1011.2426     -6150.7586      918.61914    
     15200   296.24797     -9953.668       1014.8522     -6222.5265      1353.2144    
     15300   297.82927     -9998.7801      1003.9011     -6264.0908     -995.09359    
     15400   293.58138     -9911.295       1028.5835     -6190.8721     -1008.6692    
     15500   306.51138     -9951.6552      1036.1313     -6105.1297      1288.5616    
     15600   298.37455     -9857.4553      1032.3132     -6089.3544      864.99718    
     15700   302.62087     -9864.543       1054.548      -6035.2728     -248.16144    
     15800   300.26344     -9827.1895      1052.1297     -6021.9528     -1300.8693    
     15900   304.90475     -9920.3503      1056.6911     -6067.9962     -783.58132    
     16000   300.69772     -9929.9434      989.839       -6183.0156      1561.6518    
     16100   301.80812     -9987.5899      989.21765     -6231.1021      2048.4792    
     16200   293.38837     -9969.9627      1030.1316     -6249.7614     -1173.5174    
     16300   300.82181     -10019.874      1032.4374     -6229.2104     -864.20118    
     16400   308.32991     -9965.1883      1000.6648     -6137.4553      822.801      
     16500   300.24009     -9860.1581      998.46263     -6108.8027      571.04603    
     16600   294.25691     -9887.654       1031.6936     -6157.9271     -391.83828    
     16700   297.64697     -9986.5957      1023.9596     -6233.5195     -1215.748     
     16800   300.21139     -9963.0077      980.41826     -6229.9597      448.89638    
     16900   304.30512     -9988.0531      998.2772      -6199.6109      1333.6878    
     17000   302.21997     -9980.9191      997.38064     -6212.4921     -13.416437    
     17100   296.77344     -9978.2347      970.61523     -6286.5122     -1877.3069    
     17200   305.8597      -10084.134      969.92454     -6309.7908      354.25394    
     17300   294.566       -10001.723      975.85977     -6324.9958      198.87786    
     17400   296.64363     -9978.2037      1004.6789     -6253.6077     -775.93941    
     17500   304.24614     -9995.7341      1029.4746     -6176.6352     -1132.523     
     17600   300.95148     -9930.4484      983.08252     -6187.9503     -110.84404    
     17700   296.13604     -9895.6463      977.06942     -6203.3139      786.56701    
     17800   294.3504      -9860.431       1012.344      -6149.1965      344.60679    
     17900   306.30781     -9852.5475      991.39539     -6052.6245      1069.4866    
     18000   311.88665     -9949.2313      1001.3366     -6088.2149      868.04087    
     18100   302.61671     -9942.8693      1003.1562     -6165.0291     -692.1496     
     18200   293.97563     -9910.8033      1019.0167     -6196.3324     -1582.3037    
     18300   299.10401     -9955.3479      1043.6731     -6169.1985     -447.3558     
     18400   302.40937     -9924.2915      1037.0958     -6114.4128      2178.7254    
     18500   303.43959     -9898.1558      1038.9222     -6077.0046     -83.251143    
     18600   304.28293     -9977.6339      1064.3963     -6123.276      -492.72124    
     18700   295.03013     -9945.6667      1006.1725     -6234.3713     -317.32277    
     18800   295.8395      -9981.0985      1039.9398     -6228.6147     -37.0811      
     18900   298.77107     -9931.1777      1029.2148     -6162.5394     -184.12358    
     19000   303.74742     -9947.5326      1041.2141     -6121.267      -449.64327    
     19100   303.45395     -9961.976       1018.9964     -6160.6189     -340.70392    
     19200   294.52128     -9972.9953      990.19095     -6282.3471     -125.30181    
     19300   298.4473      -10014.999      1017.1434     -6261.4004      854.6512     
     19400   298.20111     -9963.8731      1033.389      -6196.2866      96.946177    
     19500   304.25191     -9968.5397      1046.1187     -6132.7438      820.93247    
     19600   302.64445     -9984.3799      1066.9553     -6142.4861      330.14081    
     19700   300.29219     -10007.902      1051.8334     -6202.6979      58.662271    
     19800   300.82543     -10011.624      1027.3015     -6226.0629     -402.12212    
     19900   299.25957     -9975.7668      999.15783     -6232.7064      17.977139    
     20000   299.18701     -10032.918      1067.4872     -6222.1935     -1349.8735    
     20100   303.85862     -10015.013      1062.3813     -6166.5602      178.15478    
     20200   305.59175     -10003.535      1051.6529     -6149.9198      871.05423    
     20300   300.56269     -9975.1629      1043.3543     -6175.9578      141.88786    
     20400   300.15171     -9989.3756      1065.7067     -6171.5863     -1274.9198    
     20500   303.65989     -9989.2893      1059.5254     -6145.5149      461.44324    
     20600   305.69492     -10013.361      1002.4744     -6207.9781      1032.7031    
     20700   292.55325     -9986.1149      1025.1853     -6278.5171     -156.35916    
     20800   300.4517      -10076.831      1036.3991     -6285.5991     -1199.9827    
     20900   304.41306     -10087.6        1054.5437     -6241.9017      358.13455    
     21000   308.44033     -9983.871       1037.1457     -6118.6447      1576.1323    
     21100   302.01546     -9951.1302      1051.2586     -6130.7005      223.04385    
     21200   299.90287     -9994.5896      1071.1364     -6173.6523     -1660.0273    
     21300   304.74463     -10022.361      1020.9584     -6207.208       54.958253    
     21400   302.59975     -9968.0126      1004.1522     -6189.3319      623.25951    
     21500   299.92798     -9885.7962      1056.6955     -6079.0695     -381.54713    
     21600   308.98353     -9971.1041      1074.3096     -6063.7332     -329.61499    
     21700   302.53563     -9948.4422      1042.6964     -6131.8051     -697.06423    
     21800   299.09974     -9942.359       1036.6826     -6163.2393      1028.2218    
     21900   297.47287     -9936.093       1050.9713     -6157.6013      264.95168    
     22000   302.26341     -9952.9481      1080.9858     -6100.5176     -621.49374    
     22100   307.88289     -9919.6513      1057.5089     -6039.173      -501.44022    
     22200   303.20089     -9899.1835      1017.7684     -6101.3747      1147.9292    
     22300   294.08567     -9968.2311      1052.201      -6219.5669     -337.28221    
     22400   294.62354     -10012.75       1070.1798     -6241.1756     -1444.3662    
     22500   298.85984     -9963.5207      1028.8        -6194.4833     -94.523525    
     22600   304.41072     -9980.8215      1037.6545     -6152.0338      1146.1863    
     22700   302.15719     -10013.675      1069.6459     -6173.5583      471.46495    
     22800   300.7511      -10060.607      1030.5934     -6272.435      -218.50979    
     22900   301.16731     -10098.831      1010.9731     -6326.4636     -67.545242    
     23000   295.12172     -10048.223      1020.2853     -6321.9748      1048.7621    
     23100   300.29674     -10056.984      1056.0678     -6247.5043     -486.1689     
     23200   304.68323     -10008.859      1040.5256     -6174.7017     -883.11983    
     23300   298.93166     -9945.0317      1038.2998     -6165.836       1712.2025    
     23400   300.23217     -9952.0056      1023.9969     -6175.1885      425.17832    
     23500   295.92557     -9982.9884      1097.8193     -6171.8358     -2891.9727    
     23600   301.19793     -10002.826      1082.8675     -6158.283      -390.24024    
     23700   298.43371     -9980.1511      1049.9369     -6193.884       1476.2172    
     23800   294.63471     -10003.864      1071.2246     -6231.1424      648.30136    
     23900   299.28852     -10033.996      1080.5234     -6209.305      -639.4043     
     24000   301.54513     -10002.494      1087.2935     -6150.3417      254.87513    
     24100   300.40937     -9991.7842      1071.406      -6165.9332      641.88155    
     24200   293.70332     -10015.899      1056.3705     -6266.5711      550.24112    
     24300   298.67697     -10033.863      1055.2947     -6240.0075     -179.66516    
     24400   299.50538     -10019.598      1069.8542     -6203.5874     -1303.9124    
     24500   302.52849     -9981.8049      1031.858      -6176.0717      45.698246    
     24600   304.02312     -9910.1798      1020.5446     -6102.0557      1110.5661    
     24700   308.80167     -9925.8599      1055.0027     -6039.4634      556.88702    
     24800   300.22222     -9915.9044      1056.0864     -6107.089       128.68571    
     24900   298.53305     -10005.009      1103.7706     -6163.9977     -1088.9713    
     25000   293.56013     -9964.9537      1078.5762     -6194.7329      1096.5814    
     25100   295.69091     -9993.8768      1035.6915     -6247.0037     -475.54033    
     25200   298.08404     -10009.651      1037.5274     -6238.9994      21.925365    
     25300   305.37614     -9951.2038      1013.0238     -6138.1948      1070.3471    
     25400   292.59685     -9825.2975      1033.9804     -6108.5049      755.62679    
     25500   308.40725     -9943.6567      1025.3244     -6090.5549     -921.40937    
     25600   292.5325      -9912.0412      1054.5019     -6175.3171      310.64378    
     25700   293.08193     -9936.4462      1029.3992     -6219.7871      569.08212    
     25800   302.43442     -10019.024      1067.5709     -6178.4408      116.10349    
     25900   299.68386     -9981.72        1077.7063     -6156.2209     -305.34052    
     26000   307.35224     -10015.616      1052.7121     -6144.8        -294.91653    
     26100   297.00255     -9993.2726      1060.1896     -6209.8751      1440.3269    
     26200   294.66274     -9976.1181      1031.6092     -6242.7545      371.60755    
     26300   304.37553     -10031.654      1000.1349     -6240.7089     -973.63989    
     26400   294.72819     -9975.7087      1026.5982     -6246.756       63.230501    
     26500   289.07252     -9897.189       1001.9995     -6244.6917      1199.4959    
     26600   299.9591      -9924.7134      1022.5945     -6151.8024      624.85893    
     26700   303.2937      -9935.6698      1020.1662     -6134.6123     -411.6676     
     26800   295.54481     -9934.7895      1048.1904     -6176.7571      1006.889     
     26900   303.92838     -9999.4308      984.10489     -6228.6152      299.34691    
     27000   294.88766     -10015.294      981.32273     -6330.1547     -449.75696    
     27100   291.96446     -9999.5652      997.42658     -6325.1247     -370.47346    
     27200   301.99982     -9992.8534      1005.9912     -6217.8344     -295.91717    
     27300   308.12637     -10034.863      1019.0374     -6190.6239      51.660301    
     27400   303.61533     -9991.9256      1022.0363     -6186.0489     -47.935303    
     27500   301.41904     -9957.5293      1035.8318     -6157.9948     -673.14908    
     27600   305.08434     -10005.912      1061.5589     -6147.0436     -577.47629    
     27700   296.10751     -10007.888      1045.4601     -6247.4266     -55.38175     
     27800   298.88245     -10066.587      1049.972      -6276.1702      566.39891    
     27900   294.30201     -10003.733      1049.4602     -6255.826       581.93285    
     28000   298.7802      -9989.9618      1050.6448     -6199.8098      801.1933     
     28100   305.44456     -9993.8226      1086.703      -6106.507      -816.86402    
     28200   307.66644     -9930.9428      1063.9297     -6046.0282     -141.40005    
     28300   298.91593     -9935.0005      1106.8951     -6087.3536      930.17547    
     28400   301.67191     -10023.981      1110.7183     -6147.2413     -534.9376     
     28500   300.35653     -10043.126      1088.4921     -6200.673      -394.3893     
     28600   302.30776     -10069.684      1044.0323     -6253.8004     -254.5973     
     28700   294.42324     -10052.677      1061.0239     -6292.0944      616.11457    
     28800   290.69653     -10034.291      1055.4907     -6313.4118     -32.744977    
     28900   298.19195     -10044.639      1010.0069     -6300.5184     -481.91218    
     29000   298.03927     -9959.3576      1017.4438     -6209.2001     -22.217271    
     29100   301.3665      -9927.7006      996.55793     -6167.9217      1227.1831    
     29200   298.93753     -9940.6169      1001.4046     -6198.2625     -1339.9366    
     29300   300.8766      -9993.4123      1035.4425     -6199.2408     -967.51414    
     29400   301.85867     -9972.6387      1044.9704     -6159.9347     -151.48865    
     29500   302.31497     -9909.1459      1048.1482     -6089.0802      2640.9662    
     29600   302.53877     -9860.8335      1007.2548     -6079.6093      1116.1984    
     29700   300.95461     -9963.1914      1075.2361     -6128.5109     -282.42605    
     29800   300.9789      -10014.662      1029.2086     -6225.7869     -678.79647    
     29900   302.46404     -10011.545      1019.6201     -6218.6411      1085.6069    
     30000   297.59616     -9995.5208      1072.0736     -6194.7964     -59.034563    
Loop time of 568.77 on 1 procs for 30000 steps with 3077 atoms

Performance: 4.557 ns/day, 5.266 hours/ns, 52.745 timesteps/s, 162.298 katom-step/s
100.0% CPU use with 1 MPI tasks x 1 OpenMP threads

MPI task timing breakdown:
Section |  min time  |  avg time  |  max time  |%varavg| %total
---------------------------------------------------------------
Pair    | 485.22     | 485.22     | 485.22     |   0.0 | 85.31
Bond    | 1.5491     | 1.5491     | 1.5491     |   0.0 |  0.27
Kspace  | 42.452     | 42.452     | 42.452     |   0.0 |  7.46
Neigh   | 36.826     | 36.826     | 36.826     |   0.0 |  6.47
Comm    | 1.4824     | 1.4824     | 1.4824     |   0.0 |  0.26
Output  | 0.044317   | 0.044317   | 0.044317   |   0.0 |  0.01
Modify  | 0.88546    | 0.88546    | 0.88546    |   0.0 |  0.16
Other   |            | 0.3094     |            |       |  0.05

Nlocal:           3077 ave        3077 max        3077 min
Histogram: 1 0 0 0 0 0 0 0 0 0
Nghost:          19296 ave       19296 max       19296 min
Histogram: 1 0 0 0 0 0 0 0 0 0
Neighs:    1.69171e+06 ave 1.69171e+06 max 1.69171e+06 min
Histogram: 1 0 0 0 0 0 0 0 0 0

Total # of neighbors = 1691713
Ave neighs/atom = 549.79298
Ave special neighs/atom = 2.2547936
Neighbor list builds = 1607
Dangerous builds = 0
unfix ave_dihedral_histograms

variable peg_com_x equal xcm(PEG,x)
variable peg_com_y equal xcm(PEG,y)
variable peg_com_z equal xcm(PEG,z)
fix recenter_PEG PEG recenter ${peg_com_x} ${peg_com_y} ${peg_com_z}
fix recenter_PEG PEG recenter 4.20828237650428 ${peg_com_y} ${peg_com_z}
fix recenter_PEG PEG recenter 4.20828237650428 -5.7012437138476 ${peg_com_z}
fix recenter_PEG PEG recenter 4.20828237650428 -5.7012437138476 -5.21617688334552

fix oxygen_6_force pull_oxygen_6 addforce ${force_0} 0 0
fix oxygen_6_force pull_oxygen_6 addforce 5 0 0
fix oxygen_7_force pull_oxygen_7 addforce -${force_0} 0 0
fix oxygen_7_force pull_oxygen_7 addforce -5 0 0

fix ave_dihedral_histograms all ave/histo 10 2000 30000 0 180 500 c_dihedral_angles     file ../data/raw/dihedral-vs-time/final_dihedral.histo mode vector

run 30000
PPPM initialization ...
  using 12-bit tables for long-range coulomb (src/kspace.cpp:342)
  G vector (1/distance) = 0.25218253
  grid = 36 18 18
  stencil order = 5
  estimated absolute RMS force accuracy = 0.0028762521
  estimated relative force accuracy = 8.6617476e-06
  using double precision KISS FFT
  3d grid and FFT values/proc = 26875 11664
Generated 36 of 36 mixed pair_coeff terms from geometric mixing rule
Per MPI rank memory allocation (min/avg/max) = 34.21 | 34.21 | 34.21 Mbytes
   Step          Temp          E_pair         E_mol          TotEng         Press     
     30000   297.59616     -9995.5208      1072.0736     -6194.7964     -59.034563    
     30100   308.25197     -10015.931      1080.7958     -6108.7816     -1949.1025    
     30200   305.97442     -9903.7015      1053.5406     -6044.6902      31.161456    
     30300   302.38292     -9917.7926      1035.6504     -6109.6018      1163.6747    
     30400   303.30817     -9923.1635      1010.5511     -6131.5884     -242.07664    
     30500   299.26102     -9945.738       1054.2912     -6147.5309     -1557.5184    
     30600   298.27891     -9962.1982      1016.8732     -6210.4141     -895.94661    
     30700   295.9909      -9970.4492      1023.7513     -6232.7657      485.18799    
     30800   302.40679     -9989.2683      1047.2108     -6169.2981      740.62769    
     30900   307.23039     -9983.5258      1078.1031     -6088.4359     -803.74681    
     31000   301.78238     -9916.8339      1044.1045     -6105.6953     -907.28003    
     31100   310.60843     -10071.684      1016.6899     -6207.0338      872.869      
     31200   297.99182     -9993.5563      1031.3433     -6229.9344     -159.05459    
     31300   299.39012     -10002.53       1068.4622     -6188.9678      70.533384    
     31400   305.83217     -10004.581      1050.766      -6149.6482      201.44519    
     31500   304.80207     -10042.013      1054.2341     -6193.0576      736.69259    
     31600   302.05574     -10061.499      1005.3951     -6286.5628      745.36799    
     31700   303.48758     -10104.204      1038.3403     -6283.195      -407.16576    
     31800   299.47297     -10058.593      1016.6159     -6296.1183     -41.352551    
     31900   307.72461     -10137.432      959.29569     -6356.6184      826.34262    
     32000   295.62276     -10098.907      956.18513     -6432.1652      570.06321    
     32100   289.1921      -10047.63       970.8275      -6425.2083     -1456.7083    
     32200   298.26024     -10053.874      978.16169     -6340.9727      467.46812    
     32300   296.54967     -9992.9662      944.457       -6329.4537      1193.5566    
     32400   297.13884     -9954.3682      972.23145     -6257.6791     -53.961122    
     32500   303.23069     -10020.039      1043.0257     -6196.7002     -1107.5183    
     32600   300.40319     -9973.6553      1010.1393     -6209.1276     -640.95553    
     32700   298.03097     -10006.576      996.80653     -6277.1322      1209.2003    
     32800   295.44707     -10069.004      1017.3752     -6342.6831     -1075.4119    
     32900   293.37778     -10040.156      1025.886      -6324.2976     -2499.7167    
     33000   298.30262     -10016.085      1018.6645     -6262.2922      397.38642    
     33100   300.74831     -10008.065      1033.6982     -6216.8143      2095.9634    
     33200   299.08222     -9992.8655      1054.2421     -6196.347      -98.037384    
     33300   299.42552     -10014.895      1074.4559     -6195.0148     -1498.1285    
     33400   302.9698      -9953.2983      1014.3294     -6161.0475     -293.69881    
     33500   302.56073     -9934.5457      1012.815      -6147.5599      1947.3627    
     33600   298.1481      -9985.0172      1036.0602     -6215.2454      94.631215    
     33700   297.72227     -10037.017      1025.9563     -6281.2538     -1040.0155    
     33800   300.43288     -10071.425      1012.8161     -6303.9486      397.49169    
     33900   298.79705     -10083.809      1019.5027     -6324.6448      727.46986    
     34000   294.42582     -10109.448      997.50828     -6412.3573      21.834839    
     34100   291.50146     -10147.662      1000.3849     -6474.5083     -858.74379    
     34200   292.36043     -10099.763      1015.6638     -6403.4549     -493.81879    
     34300   304.74566     -10145.91       1028.4353     -6323.2706     -1073.5466    
     34400   294.30051     -10028.92       1075.3039     -6255.183      -210.74214    
     34500   299.46294     -10009.31       1054.2917     -6209.2512      457.45672    
     34600   303.2134      -10005.897      1055.2987     -6170.4438      1280.1638    
     34700   298.12893     -9925.1053      1015.7443     -6175.8252      1329.7665    
     34800   294.07869     -9971.5532      1032.2206     -6242.9334     -809.25503    
     34900   292.27874     -10001.838      1014.4994     -6307.4429     -781.15847    
     35000   300.29745     -10017.588      995.57956     -6268.5893      1091.1356    
     35100   300.41146     -9977.1954      1026.252      -6196.4792      168.6582     
     35200   303.39311     -9989.5366      1035.0522     -6172.6816     -1749.5178    
     35300   300.96235     -9984.9297      1024.3551     -6201.0592     -378.34473    
     35400   300.45362     -9976.9845      999.35795     -6222.7758      1562.8287    
     35500   302.15415     -10018.887      1012.5504     -6235.8936     -48.986738    
     35600   304.1861      -10115.696      1042.7074     -6283.915      -1819.3059    
     35700   296.39543     -10069.745      1004.1158     -6347.9882     -414.0172     
     35800   299.27837     -10008.505      981.70621     -6282.7239      748.21081    
     35900   303.59495     -9993.6329      1020.9597     -6189.0197      7.2805053    
     36000   303.75585     -10039.777      1044.1294     -6210.5193     -1470.736     
     36100   301.29856     -10041.867      1015.3703     -6263.8984     -326.78987    
     36200   299.33253     -10025.769      981.48692     -6299.7109      1272.1328    
     36300   299.97262     -10020.503      1002.5765     -6267.486       721.14103    
     36400   308.26762     -10029.315      1060.3468     -6142.4712     -1107.6208    
     36500   302.98562     -10016.403      1075.923      -6162.4136     -325.64319    
     36600   301.35595     -10004.001      1003.366      -6237.5109      310.79216    
     36700   294.01261     -9969.9997      978.79411     -6295.4122      733.6593     
     36800   300.34858     -10028.279      998.81209     -6275.5789     -117.47277    
     36900   300.57641     -9979.9819      1009.1866     -6214.8186      302.67209    
     37000   303.24343     -9953.1819      1009.6324     -6163.119      -200.03364    
     37100   311.36872     -10012.147      1042.7232     -6114.4926      67.473044    
     37200   297.97638     -10017.186      1040.2807     -6244.7681     -520.69003    
     37300   297.18769     -10083.528      1049.6022     -6309.02       -418.38231    
     37400   297.49841     -10109.046      1049.9476     -6331.3439      544.08115    
     37500   293.84082     -10031.424      1018.8096     -6318.3963      487.86775    
     37600   298.82228     -10017.606      1054.9987     -6222.7145     -1096.8523    
     37700   302.51726     -9990.234       1009.9749     -6206.4869     -95.581812    
     37800   298.20069     -10026.27       1041.94       -6250.1365     -152.9066     
     37900   295.09424     -9992.2572      1011.2613     -6275.2852      108.51939    
     38000   302.04792     -10035.971      1008.1665     -6258.3361      102.24508    
     38100   304.33796     -10079.604      1043.701      -6245.4363     -256.82823    
     38200   299.67336     -10040.463      1047.543      -6245.2234     -12.563748    
     38300   302.13362     -10042.739      1033.5022     -6238.9827      553.18286    
     38400   293.92503     -10050.078      1027.513      -6327.5744      522.20523    
     38500   296.90776     -10081.112      998.61813     -6360.1549      317.67518    
     38600   297.87446     -10098.733      1045.6591     -6321.8712     -465.72676    
     38700   307.97122     -10115.536      1024.7864     -6266.9705      830.22935    
     38800   304.81939     -10108.566      1011.8948     -6301.7909      1527.6098    
     38900   301.85527     -10158.235      991.81589     -6398.717      -62.607923    
     39000   292.98706     -10096.029      1009.3803     -6400.2583     -1200.73      
     39100   301.06824     -10076.489      969.0788      -6346.9241      1072.0747    
     39200   296.12094     -10026.215      975.17754     -6335.9133      1210.723     
     39300   300.26332     -10137.325      1010.8918     -6373.3269     -1017.0546    
     39400   298.13746     -10147.935      986.3675      -6427.9535     -1284.2114    
     39500   298.50417     -10114.326      953.13702     -6424.2125      511.05735    
     39600   304.45094     -10123.781      991.29598     -6340.983       1489.1078    
     39700   304.66514     -10137.246      1010.1149     -6333.665      -1387.752     
     39800   294.41822     -10131.154      1042.4009     -6389.2409     -645.44793    
     39900   292.64171     -10110.747      983.94037     -6443.5832      1541.6526    
     40000   291.96824     -10179.577      985.8921      -6516.6364      1134.8382    
     40100   300.57104     -10185.904      994.50526     -6435.4714     -1970.057     
     40200   301.75966     -10186.576      1033.2155     -6386.5348     -1389.0225    
     40300   300.70195     -10166.592      980.45563     -6429.009       1538.7856    
     40400   298.48917     -10161.864      942.07642     -6482.9488      2016.3121    
     40500   295.51971     -10151.69       994.87919     -6447.1988     -1901.6951    
     40600   305.29411     -10125.755      983.91141     -6342.6103     -2020.1593    
     40700   308.30382     -10107.713      946.86111     -6334.0233      523.48981    
     40800   295.34046     -10094.775      982.52268     -6404.2844      1864.0299    
     40900   296.75532     -10158.62       991.76517     -6445.9138      456.48986    
     41000   295.34134     -10123.461      968.07796     -6447.4066     -1581.1121    
     41100   302.64584     -10150.281      955.67685     -6419.6531     -292.00458    
     41200   302.60991     -10125.942      988.73284     -6362.5877      1087.0194    
     41300   309.92806     -10090.316      980.10925     -6268.4854      522.7424     
     41400   297.98137     -10066.632      1004.1416     -6330.3074     -412.72258    
     41500   302.41015     -10134.406      995.42254     -6366.1937     -30.681199    
     41600   297.47236     -10099.978      994.00345     -6378.4586      620.2393     
     41700   289.2261      -10116.734      1022.8084     -6442.0196     -94.616084    
     41800   293.61931     -10176.063      992.84003     -6491.0353     -1321.4533    
     41900   303.59437     -10163.667      1004.4453     -6375.5737     -709.29477    
     42000   298.71184     -10077.488      1009.3643     -6329.2431      855.73575    
     42100   309.27322     -10161.041      999.24865     -6326.0748      475.98045    
     42200   295.88468     -10109.701      983.77509     -6412.9677     -1246.9146    
     42300   296.61047     -10178.315      998.68259     -6460.019      -656.87158    
     42400   305.95808     -10224.571      991.10513     -6428.1445      60.407211    
     42500   299.79715     -10128.09       982.00911     -6397.2495      619.21498    
     42600   308.68099     -10189.984      1000.4567     -6359.2403     -324.85995    
     42700   300.73473     -10169.133      1003.1782     -6408.5268     -540.06183    
     42800   297.90222     -10119.543      980.48046     -6407.6053      638.49689    
     42900   307.20361     -10213.073      1002.2853     -6394.0469      274.14817    
     43000   302.00997     -10264.51       1005.9445     -6489.4448     -410.33884    
     43100   296.40466     -10223.061      982.77738     -6522.5577     -214.76573    
     43200   296.28735     -10169.138      982.14797     -6470.3399     -268.92256    
     43300   299.44356     -10231.572      1023.6204     -6462.3619      194.5999     
     43400   290.76222     -10147.755      1023.5589     -6458.2053     -103.89086    
     43500   301.75723     -10224.161      1025.675      -6431.6828      406.92086    
     43600   298.09214     -10151.315      999.74246     -6418.3743      1002.4027    
     43700   301.71176     -10160.212      1015.7845     -6378.0406      187.82835    
     43800   299.99722     -10138.667      1023.6727     -6364.3282     -112.62194    
     43900   291.93833     -10056.469      1043.9188     -6335.7762      418.92964    
     44000   296.54277     -10041.666      1064.1035     -6258.5706      772.39814    
     44100   296.21013     -10007.776      1043.1362     -6248.697      -448.38231    
     44200   301.17054     -10050.395      1020.4945     -6268.4767      471.82895    
     44300   298.56932     -10052.732      1005.8962     -6309.2623      859.98379    
     44400   290.01392     -10073.107      1014.4171     -6399.5604      343.84111    
     44500   293.80739     -10133.112      1031.6526     -6407.5477     -1825.3908    
     44600   301.03368     -10106.026      1040.0575     -6305.7993     -1061.2676    
     44700   297.53362     -10057.477      1037.1169     -6292.2832      585.47429    
     44800   302.56553     -10057.523      999.50284     -6283.8053     -37.530553    
     44900   299.43174     -10063.29       1020.439      -6297.3702     -790.85545    
     45000   296.5178      -10085.597      984.42482     -6382.4091     -1586.2057    
     45100   296.21299     -10136.812      985.27463     -6435.5692     -1328.6417    
     45200   295.99806     -10092.759      998.89922     -6379.8619     -884.60481    
     45300   302.05053     -10058.594      994.29073     -6294.8109      493.83088    
     45400   301.47739     -10066.501      992.76142     -6309.502      -281.14969    
     45500   293.14231     -10069.08       1045.4369     -6335.83       -596.13055    
     45600   301.93295     -10113.773      1023.1046     -6322.2534     -273.25731    
     45700   297.90345     -10022.794      977.0442      -6314.2812      80.439824    
     45800   300.85557     -10027.794      1011.1396     -6258.1179     -520.68755    
     45900   305.29177     -10031.999      1026.8298     -6205.9578     -733.09145    
     46000   310.54216     -10021.106      969.35959     -6204.3937      69.993039    
     46100   292.46233     -10003.988      1013.9601     -6308.4494      305.84705    
     46200   296.67293     -10057.948      1020.1455     -6317.6163     -1332.1582    
     46300   301.94461     -10049.74       1002.9682     -6278.25       -231.96261    
     46400   301.96044     -10012.67       979.64853     -6264.3552     -898.43799    
     46500   303.08382     -10103          953.64615     -6370.3871      644.53602    
     46600   299.07717     -10153.037      983.0489      -6427.7578     -1151.7623    
     46700   295.79061     -10114.266      998.08826     -6404.082      -266.62795    
     46800   303.86606     -10084.544      983.0676      -6315.3368     -713.08812    
     46900   299.64389     -10006.856      985.73574     -6273.6941      1067.9702    
     47000   301.96886     -10054.445      996.00014     -6289.701      -472.44737    
     47100   293.86881     -10050.106      1044.8293     -6310.8023     -567.55037    
     47200   299.17058     -10085.135      1032.1407     -6309.9079     -906.15598    
     47300   297.23988     -10031.624      1001.796      -6304.4437      10.059078    
     47400   300.39654     -10066.959      1025.4709     -6287.1606      88.224091    
     47500   300.00401     -10097.749      1036.1682     -6310.853      -274.62409    
     47600   293.45886     -10110.927      1045.4992     -6374.712      -1466.7886    
     47700   298.81859     -10156.232      1029.1209     -6387.2522      470.10037    
     47800   294.39237     -10075.626      1018.2424     -6358.1084      1600.4897    
     47900   297.9604      -10038.633      1063.0931     -6243.5489      727.91803    
     48000   299.03504     -10041.828      1081.1821     -6218.8026     -568.80965    
     48100   300.91998     -10074.982      1028.1806     -6287.6747      70.410648    
     48200   301.91193     -10121.598      1015.2402     -6338.1357      738.42509    
     48300   290.51774     -10064.437      1028.3247     -6372.3637     -186.91948    
     48400   307.75623     -10169.416      1028.5804     -6319.0273     -2073.3838    
     48500   304.73486     -10062.097      1011.5566     -6256.4349     -1442.7408    
     48600   299.68175     -10087.858      1013.8587     -6326.2261      1568.5225    
     48700   298.63392     -10159.579      992.06505     -6429.3476     -315.01586    
     48800   300.20898     -10186.928      1030.5375     -6403.7824     -1676.915     
     48900   303.2213      -10133.545      1028.123      -6325.1943     -1621.1207    
     49000   300.77472     -10052.489      1012.558      -6282.1362      970.32992    
     49100   303.94763     -10068.582      1036.9101     -6244.7851     -592.57532    
     49200   296.59904     -10066.28       1054.3993     -6292.3725     -688.22103    
     49300   294.64291     -10130.069      1034.9676     -6393.5291     -624.85924    
     49400   300.51304     -10148.628      1010.895      -6382.3373      360.26595    
     49500   297.86336     -10154.103      1000.4883     -6422.5144      737.36391    
     49600   295.20671     -10189.118      1003.1334     -6479.2421     -64.515272    
     49700   293.357       -10179.487      1033.9056     -6455.7995     -211.69615    
     49800   298.90835     -10132.438      1052.5779     -6339.1776      30.49711     
     49900   301.15121     -10120.47       1031.1022     -6328.1205      24.428583    
     50000   303.31561     -10178.351      1038.0696     -6359.1895     -310.50708    
     50100   296.58121     -10167.203      1027.8748     -6419.9834     -588.57804    
     50200   294.15697     -10144.955      1006.5497     -6441.2883     -819.13715    
     50300   304.66162     -10165.093      1041.5729     -6330.0865     -1554.6565    
     50400   302.76826     -10098.794      1039.5264     -6283.1934     -853.8628     
     50500   303.06122     -10156.043      1052.8983     -6324.3848      173.84351    
     50600   301.56874     -10163.164      994.11943     -6403.9694      30.037285    
     50700   300.64132     -10228.869      1031.8664     -6440.4307     -583.84634    
     50800   297.92376     -10190.017      1000.3083     -6458.054       254.59309    
     50900   296.66053     -10240.341      990.03242     -6530.2366      665.5945     
     51000   286.30236     -10211.904      999.73937     -6587.0664     -104.68148    
     51100   297.10342     -10204.982      1014.5092     -6466.3401     -1123.1508    
     51200   298.01364     -10187.727      1046.4224     -6408.8261     -824.69383    
     51300   301.29149     -10102.48       1000.3002     -6339.6463      709.7805     
     51400   308.9285      -10107.955      1004.4066     -6270.9917      235.99555    
     51500   310.04965     -10147.122      1040.6029     -6263.6832     -1471.5385    
     51600   293.28954     -10099.993      1059.2683     -6351.5609     -2116.8707    
     51700   294.97989     -10126.166      1036.7731     -6384.7304      766.8106     
     51800   302.33442     -10112.439      1037.317      -6303.0266      662.01115    
     51900   303.32662     -10098.696      1097.1592     -6220.3441     -201.52826    
     52000   297.41322     -10066.865      1084.9447     -6254.9471     -1847.9018    
     52100   299.27582     -10101.796      1058.7852     -6298.9588     -475.81532    
     52200   293.74344     -10054.987      1054.1639     -6307.4982      1322.9191    
     52300   306.56532     -10110.408      1039.4328     -6260.0869     -721.52799    
     52400   310.08345     -10134.785      1065.8243     -6225.8146     -1515.7727    
     52500   295.33313     -10022.148      1025.3855     -6288.8618      883.18042    
     52600   289.60523     -10032.273      1024.2839     -6352.6068      976.87606    
     52700   301.29214     -10150.294      1059.2255     -6328.5296     -232.07347    
     52800   303.85806     -10058.987      1025.6894     -6247.2318     -176.99523    
     52900   298.20439     -9928.9314      1033.8649     -6160.8388      1023.7378    
     53000   307.516       -10035.483      1038.4774     -6177.3996     -1014.8666    
     53100   296.87182     -9945.5317      1024.7128     -6198.8096     -1601.0504    
     53200   302.419       -9963.4489      984.154       -6206.4236     -165.26151    
     53300   293.20337     -9926.4288      980.56959     -6257.4858      797.03163    
     53400   297.04838     -9987.4692      1023.0026     -6240.8384     -301.91872    
     53500   300.97175     -9941.6117      1066.5047     -6115.5055     -769.68999    
     53600   304.02259     -9928.741       1055.3062     -6085.8603     -216.03275    
     53700   302.04384     -9921.3051      1006.4072     -6145.4665     -537.57945    
     53800   304.14009     -10034.066      1036.8556     -6208.558      -1953.5617    
     53900   294.97228     -9938.1149      1012.3291     -6221.1933     -170.23845    
     54000   302.21447     -9980.1414      1008.5714     -6200.5741      259.5008     
     54100   300.02075     -9987.1349      1009.4647     -6226.7884      145.23751    
     54200   296.88358     -10090.523      1023.144      -6345.2622     -1343.9384    
     54300   298.85302     -10120.922      994.7627      -6385.9843     -1681.5546    
     54400   299.60284     -10157.387      1036.8751     -6373.4623     -386.41645    
     54500   300.35781     -10038.897      997.22612     -6287.6987      368.49492    
     54600   305.93918     -10090.062      1063.3824     -6221.5322     -10.568879    
     54700   302.82376     -10118.705      1054.7086     -6287.4139     -1606.5545    
     54800   301.00092     -10138.926      1046.2753     -6332.782      -621.55312    
     54900   298.0877      -10077.22       1025.2616     -6318.8008      1540.9647    
     55000   299.27469     -10080.776      1068.3922     -6268.3428      190.39204    
     55100   303.04897     -10117.598      1101.4279     -6237.5227     -2188.7078    
     55200   303.75583     -10097.116      1051.1294     -6260.8577     -347.03164    
     55300   296.42841     -10104.966      1019.9865     -6367.0361      1014.9996    
     55400   290.81621     -10079.211      1032.8548     -6379.8709      389.95992    
     55500   301.17862     -10083.689      1015.0113     -6307.179      -1162.9622    
     55600   299.29715     -10030.195      1031.2357     -6254.7119     -565.43684    
     55700   301.74644     -10034.636      1017.0327     -6250.8987      130.31565    
     55800   301.65306     -10062.942      1030.6273     -6266.4666     -629.49994    
     55900   294.54944     -10068.45       1046.5768     -6321.1577     -523.9667     
     56000   295.94281     -10127.119      1039.3606     -6374.267      -1327.4982    
     56100   297.06848     -10098.033      1046.4672     -6327.7537     -60.638637    
     56200   303.33073     -10076.367      1050.1711     -6244.9646      218.51799    
     56300   301.73717     -10033.226      1042.3193     -6224.2874      964.55125    
     56400   301.00701     -10059.984      1062.4278     -6237.6316     -743.68933    
     56500   298.82346     -10089.171      1046.384      -6302.8833     -1086.8422    
     56600   288.51668     -10018.916      1008.0534     -6365.4613      45.812841    
     56700   294.95366     -10000.042      1016.8341     -6278.7862     -191.68518    
     56800   302.60094     -10049.254      1050.6858     -6224.0283     -581.73958    
     56900   301.04747     -9984.6257      1017.5747     -6206.7553     -96.144395    
     57000   309.71176     -10052.146      1030.9306     -6181.4769      334.42196    
     57100   299.57096     -9995.4998      1004.235      -6244.5071      979.39815    
     57200   296.41387     -10106.228      1064.8938     -6323.5238     -1326.5309    
     57300   291.63731     -10078.763      1095.7861     -6308.9629     -902.73937    
     57400   299.21915     -10047.16       1049.9049     -6253.7231      980.39937    
     57500   301.36542     -10023.763      1037.8794     -6222.6726      2016.4275    
     57600   301.34746     -10010.54       1028.907      -6218.587      -298.77625    
     57700   295.49179     -10100.179      1047.2168     -6343.6058     -2195.8123    
     57800   295.80113     -10090.014      1015.1633     -6362.6583     -231.66315    
     57900   298.40153     -10043.069      1005.6608     -6301.3734      813.38326    
     58000   300.43482     -10001.737      1028.6013     -6218.4569     -611.06448    
     58100   302.37665     -10033.028      1065.6903     -6194.8549     -1558.1832    
     58200   306.40059     -10042.509      995.6857      -6237.4445     -310.02813    
     58300   296.51766     -10017.491      960.56049     -6338.1685      1664.0911    
     58400   301.40732     -10094.251      1002.213      -6328.4429     -179.66693    
     58500   302.30359     -10049.201      978.0989      -6299.2887     -1797.9655    
     58600   304.28672     -10039.556      1025.4064     -6224.1537     -183.01039    
     58700   305.56292     -9971.5643      989.43969     -6180.4268      2265.7338    
     58800   305.87319     -10002.17       976.34146     -6221.2857      509.25416    
     58900   306.26831     -10099.163      1017.2656     -6273.7318     -1978.2466    
     59000   300.38557     -10061.402      993.46242     -6313.7124     -370.23865    
     59100   290.89458     -9994.4069      978.40631     -6348.7964      220.4513     
     59200   305.01233     -10125.941      983.95093     -6345.3403     -47.738201    
     59300   297.74418     -10108.886      980.36327     -6398.515      -550.53224    
     59400   299.9928      -10164.489      942.96298     -6470.9006     -385.00839    
     59500   292.89081     -10102.396      935.01745     -6481.8708     -343.1385     
     59600   298.73954     -10083.274      973.2217      -6370.9175     -516.03297    
     59700   305.46692     -10141.807      1020.3506     -6320.6387     -642.50354    
     59800   302.64988     -10101.194      992.11505     -6334.0913      303.27524    
     59900   293.30179     -10053.572      989.47129     -6374.8246      666.77667    
     60000   303.61973     -10113.196      1022.9598     -6306.3559     -576.35967    
Loop time of 577.32 on 1 procs for 30000 steps with 3077 atoms

Performance: 4.490 ns/day, 5.346 hours/ns, 51.964 timesteps/s, 159.894 katom-step/s
100.0% CPU use with 1 MPI tasks x 1 OpenMP threads

MPI task timing breakdown:
Section |  min time  |  avg time  |  max time  |%varavg| %total
---------------------------------------------------------------
Pair    | 493.02     | 493.02     | 493.02     |   0.0 | 85.40
Bond    | 1.5826     | 1.5826     | 1.5826     |   0.0 |  0.27
Kspace  | 43.182     | 43.182     | 43.182     |   0.0 |  7.48
Neigh   | 36.575     | 36.575     | 36.575     |   0.0 |  6.34
Comm    | 1.52       | 1.52       | 1.52       |   0.0 |  0.26
Output  | 0.038981   | 0.038981   | 0.038981   |   0.0 |  0.01
Modify  | 1.083      | 1.083      | 1.083      |   0.0 |  0.19
Other   |            | 0.3206     |            |       |  0.06

Nlocal:           3077 ave        3077 max        3077 min
Histogram: 1 0 0 0 0 0 0 0 0 0
Nghost:          19246 ave       19246 max       19246 min
Histogram: 1 0 0 0 0 0 0 0 0 0
Neighs:     1.6911e+06 ave  1.6911e+06 max  1.6911e+06 min
Histogram: 1 0 0 0 0 0 0 0 0 0

Total # of neighbors = 1691100
Ave neighs/atom = 549.59376
Ave special neighs/atom = 2.2547936
Neighbor list builds = 1574
Dangerous builds = 0
Total wall time: 0:19:06
