LAMMPS (7 Feb 2024 - Update 1)
OMP_NUM_THREADS environment is not set. Defaulting to 1 thread. (src/comm.cpp:98)
  using 1 OpenMP thread(s) per MPI task
# Molecular Dynamics - Input Script for Evaluation of H2O Solvated PEG Deformation

# 1) Initialization
units real
atom_style full
bond_style harmonic
angle_style harmonic
dihedral_style harmonic
pair_style lj/cut/coul/long 12
kspace_style pppm 1e-5
special_bonds lj 0.0 0.0 0.5 coul 0.0 0.0 1.0 angle yes dihedral yes
variable force_0 equal 5

# 2) System Definition
read_data ../../solvated-PEG/solvated_PEG.data
Reading data file ...
  orthogonal box = (-11.941243 -12.049871 -12.049871) to (60.357981 12.049871 12.049871)
  1 by 1 by 1 MPI processor grid
  reading atoms ...
  3125 atoms
  reading velocities ...
  3125 velocities
  scanning bonds ...
  3 = max bonds/atom
  scanning angles ...
  6 = max angles/atom
  scanning dihedrals ...
  9 = max dihedrals/atom
  reading bonds ...
  2116 bonds
  reading angles ...
  1191 angles
  reading dihedrals ...
  210 dihedrals
Finding 1-2 1-3 1-4 neighbors ...
  special bond factors lj:    0        0        0.5     
  special bond factors coul:  0        0        1       
     4 = max # of 1-2 neighbors
     6 = max # of 1-3 neighbors
    12 = max # of 1-4 neighbors
  2382 = # of 1-3 neighbors before angle trim
  2382 = # of 1-3 neighbors after angle trim
  2578 = # of 1-4 neighbors before dihedral trim
  420 = # of 1-4 neighbors after dihedral trim
    14 = max # of special neighbors
  special bonds CPU = 0.001 seconds
  read_data CPU = 0.016 seconds

# 3) Simulation Settings
include ../../H2O-PEG-parameters.lammps
mass 1 15.9994 # PEG O
mass 2 12.011 # PEG C
mass 3 1.008 # PEG H
mass 4 1.008 # PEG H
mass 5 12.011 # PEG C
mass 6 15.9994 # PEG O
mass 7 15.9994 # PEG O
mass 8 15.9994 # H2O O
mass 9 1.008 # H2O H

pair_coeff 1 1 0.25265643 2.8491607
pair_coeff 2 2 0.06630155 3.5811794
pair_coeff 3 3 0.028293679 2.373408
pair_coeff 4 4 0.0 0.0
pair_coeff 5 5 0.24501823 2.8114421
pair_coeff 6 6 0.11949714 3.1000042
pair_coeff 7 7 0.11949714 3.1000042
pair_coeff 8 8 0.119431704 3.400251
pair_coeff 9 9 0.0 0.0

bond_coeff 1 400.05737 1.4
bond_coeff 2 400.0343 1.53
bond_coeff 3 155.35373 1.42
bond_coeff 4 143.40344 1.11
bond_coeff 5 621.4149 0.938
bond_coeff 6 442.1606 0.972

angle_coeff 1 47.555878 103.0
angle_coeff 2 50.17089 108.0
angle_coeff 3 30.173132 109.5
angle_coeff 4 47.69405 109.5
angle_coeff 5 55.12715 109.5
angle_coeff 6 47.634956 109.6
angle_coeff 7 55.113907 111.0
angle_coeff 8 59.79372 115.0
angle_coeff 9 52.476738 107.57
angle_coeff 10 54.956596 107.6
angle_coeff 11 54.993103 110.3
angle_coeff 12 55.0234 111.4
angle_coeff 13 30.173132 110.0
angle_coeff 14 509.99622 112.0
angle_coeff 15 47.555878 103.0

dihedral_coeff 1 0.30114722 1 3
dihedral_coeff 2 1.414914 1 3
dihedral_coeff 3 0.0 1 1

group H2O type 8 9
3024 atoms in group H2O
group PEG type 1 2 3 4 5 6 7
101 atoms in group PEG

group pull_oxygen_6 type 6
1 atoms in group pull_oxygen_6
group pull_oxygen_7 type 7
1 atoms in group pull_oxygen_7

# 4) Run
dump dump_all_atoms_per_1000_timestep all atom 1000 trajectory-output-data/dump_all_atoms_per_1000_timestep.lammpstrj
thermo 100

fix nvt_ensemble all nvt temp 300 300 100
timestep 1.0

compute dihedral_angles all dihedral/local phi
fix ave_dihedral_histograms all ave/histo 10 2000 30000 0 180 500 c_dihedral_angles     file ave-time-output-data/initial_dihedral.histo mode vector

run 30000
PPPM initialization ...
  using 12-bit tables for long-range coulomb (src/kspace.cpp:342)
  G vector (1/distance) = 0.24952423
  grid = 40 18 18
  stencil order = 5
  estimated absolute RMS force accuracy = 0.0031205121
  estimated relative force accuracy = 9.3973294e-06
  using double precision KISS FFT
  3d grid and FFT values/proc = 29375 12960
Generated 36 of 36 mixed pair_coeff terms from geometric mixing rule
Neighbor list info ...
  update: every = 1 steps, delay = 0 steps, check = yes
  max neighbors/atom: 2000, page size: 100000
  master list distance cutoff = 14
  ghost atom cutoff = 14
  binsize = 7, bins = 11 4 4
  1 neighbor lists, perpetual/occasional/extra = 1 0 0
  (1) pair lj/cut/coul/long, perpetual
      attributes: half, newton on
      pair build: half/bin/newton
      stencil: half/bin/3d
      bin: standard
Per MPI rank memory allocation (min/avg/max) = 31.62 | 31.62 | 31.62 Mbytes
   Step          Temp          E_pair         E_mol          TotEng         Press     
         0   305.50623     -7630.4617      1403.7938     -3381.7785      341.1264     
       100   304.3128      -7651.578       1405.8881     -3411.9137      336.22067    
       200   300.43131     -7718.719       1407.6021     -3513.4854     -526.25263    
       300   294.3693      -7685.9696      1414.5026     -3530.2851     -694.62276    
       400   298.49694     -7680.9521      1436.1169     -3465.2165     -199.99847    
       500   306.33848     -7669.9963      1396.4974     -3420.8594      305.91911    
       600   299.03654     -7620.1675      1401.9588     -3433.5654      215.2933     
       700   294.45749     -7608.4575      1396.4463     -3470.0082      949.83876    
       800   295.03493     -7653.2283      1351.3168     -3554.5313      477.46587    
       900   295.33382     -7622.9141      1365.0115     -3507.7392      391.13096    
      1000   302.41196     -7635.7981      1404.6767     -3415.046       249.51557    
      1100   302.26592     -7628.9763      1423.8704     -3390.3904      655.92012    
      1200   301.41227     -7600.275       1388.9305     -3404.5782      532.88206    
      1300   303.90329     -7664.7554      1387.2592     -3447.5334     -47.186136    
      1400   297.36173     -7672.4857      1377.3682     -3526.0701      838.47933    
      1500   292.87801     -7617.962       1388.4083     -3502.2588      871.23322    
      1600   299.33026     -7599.3888      1418.7499     -3393.2603      361.76922    
      1700   300.19433     -7616.5635      1426.7935     -3394.3451     -281.41979    
      1800   298.33586     -7612.5986      1433.0508     -3401.4292     -466.47386    
      1900   303.04077     -7621.932       1399.0127     -3400.9883     -601.45826    
      2000   299.21746     -7558.0715      1409.7053     -3362.038      -1158.0962    
      2100   303.47475     -7553.188       1452.9071     -3274.3087     -556.58699    
      2200   303.17018     -7568.594       1464.1408     -3281.3171     -205.29089    
      2300   304.12988     -7605.5444      1406.7794     -3366.6922     -676.23493    
      2400   302.84863     -7621.4377      1407.8858     -3393.4101     -402.98583    
      2500   302.7279      -7665.1981      1419.3029     -3426.8777     -760.19217    
      2600   296.91655     -7601.0335      1377.6768     -3458.4549     -216.92459    
      2700   299.19075     -7592.2613      1400.4366     -3405.7452     -73.00472     
      2800   305.46724     -7613.989       1474.6992     -3294.7634     -422.60025    
      2900   308.94186     -7677.3718      1503.2335     -3297.2561      392.64343    
      3000   301.57718     -7664.4869      1479.8561     -3376.3288     -573.65262    
      3100   296.48003     -7586.0945      1403.4119     -3421.8456     -421.83807    
      3200   298.928       -7618.3097      1400.0713     -3434.6057     -419.66025    
      3300   299.83859     -7700.9811      1437.3841     -3471.4848     -556.52922    
      3400   294.52039     -7798.2081      1486.2896     -3569.3297     -1199.9357    
      3500   295.78174     -7750.2266      1440.5365     -3555.3555     -1408.909     
      3600   301.27579     -7712.8844      1408.9717     -3498.4173     -831.44609    
      3700   297.98465     -7660.8496      1414.228      -3471.7734     -617.00216    
      3800   299.28344     -7633.0667      1412.448      -3433.6762     -320.41323    
      3900   306.13198     -7616.4581      1395.6904     -3370.0512      518.05664    
      4000   304.81088     -7570.4069      1409.3445     -3322.648       278.77948    
      4100   304.48294     -7519.7011      1391.6399     -3292.7006     -159.23231    
      4200   301.30229     -7565.773       1438.1571     -3321.8737     -636.43084    
      4300   300.61028     -7611.1584      1394.6537     -3417.2065      80.395044    
      4400   300.16454     -7634.4102      1394.6324     -3444.6304      884.62867    
      4500   299.68175     -7594.019       1374.2787     -3429.0887      998.57374    
      4600   306.5669      -7585.5255      1382.2286     -3348.5304      659.69424    
      4700   301.6511      -7542.6948      1435.4453     -3298.2592      862.11254    
      4800   304.186       -7620.9494      1406.2239     -3382.1301      755.27631    
      4900   304.19339     -7680.8829      1419.5809     -3428.6378      292.37647    
      5000   299.93893     -7664.4543      1416.6675     -3454.7403      695.1017     
      5100   304.03161     -7691.7919      1393.5369     -3467.0972      49.677724    
      5200   303.80633     -7678.8947      1365.8276     -3484.0071     -632.60522    
      5300   291.65321     -7672.2383      1421.1057     -3535.2431     -764.36245    
      5400   294.65383     -7688.6033      1432.5395     -3512.2324     -1515.5074    
      5500   296.74908     -7615.1276      1440.2817     -3411.5035     -849.99222    
      5600   301.18529     -7633.7683      1460.4211     -3368.6946     -1009.1243    
      5700   304.60875     -7663.0431      1461.9405     -3364.5705     -1323.4309    
      5800   297.23819     -7652.7624      1462.0768     -3422.7886     -452.1985     
      5900   294.97429     -7659.7204      1413.9315     -3498.9734     -219.23919    
      6000   304.91208     -7718.2164      1411.4047     -3467.4549     -286.1748     
      6100   303.51567     -7647.8444      1420.1957     -3401.2955      262.65651    
      6200   307.24888     -7653.2737      1393.7676     -3398.389       704.07074    
      6300   300.14651     -7636.907       1441.7851     -3400.1424      314.44879    
      6400   301.23772     -7666.0482      1432.6947     -3428.2126     -354.53728    
      6500   296.49076     -7655.8123      1394.9158     -3499.9596     -511.22605    
      6600   296.91006     -7703.9888      1420.6093     -3518.5379      141.72733    
      6700   301.54267     -7678.6955      1460.8921     -3409.8229      340.86958    
      6800   306.68197     -7659.1674      1426.7359     -3376.5935      227.60767    
      6900   303.51375     -7662.6383      1411.8097     -3424.4933      418.79096    
      7000   301.01213     -7670.8549      1396.6021     -3471.2125      125.23136    
      7100   302.40047     -7686.3404      1401.903      -3468.4689     -283.85397    
      7200   300.99764     -7625.9386      1443.54       -3379.4933      219.10912    
      7300   311.72321     -7685.4038      1464.4711     -3318.1503     -132.78108    
      7400   302.25613     -7690.4012      1488.241      -3387.5358      622.35742    
      7500   301.83334     -7661.2249      1397.1492     -3453.3883      1017.4547    
      7600   303.95759     -7695.5975      1385.0184     -3480.1106      581.42753    
      7700   301.11526     -7741.6495      1461.0662     -3476.5827      213.85488    
      7800   296.63277     -7747.4038      1485.8448     -3499.2996      487.46201    
      7900   293.14992     -7693.6135      1427.5598     -3536.2268      228.08768    
      8000   301.91201     -7760.5557      1403.606      -3545.5298      192.61425    
      8100   302.5136      -7737.0199      1422.3464     -3497.6516     -40.008139    
      8200   301.53043     -7664.1276      1445.2025     -3411.0585     -128.2163     
      8300   302.95804     -7691.9586      1485.3254     -3385.4726     -47.528783    
      8400   303.98866     -7694.2141      1434.7868     -3428.6695     -504.78916    
      8500   297.3171      -7647.8474      1413.6096     -3465.6059     -111.84816    
      8600   300.42818     -7694.0284      1447.4236     -3449.0024     -132.81165    
      8700   298.84475     -7637.4535      1422.3699     -3432.2261     -394.46749    
      8800   302.68754     -7675.9471      1446.369      -3410.9364     -170.10899    
      8900   303.08722     -7680.2783      1439.2617     -3418.653      -654.58105    
      9000   302.4256      -7678.2554      1416.8602     -3445.1928     -484.65266    
      9100   294.10261     -7642.6413      1431.4685     -3472.4744     -102.35789    
      9200   300.87477     -7713.1167      1433.809      -3477.5466     -976.15916    
      9300   303.63654     -7678.2578      1436.658      -3414.121      -795.96981    
      9400   299.35167     -7677.6392      1520.2111     -3369.8502     -409.49298    
      9500   295.91031     -7674.5985      1486.0694     -3432.9972     -930.79551    
      9600   296.92303     -7767.7616      1479.918      -3522.8813     -253.78958    
      9700   299.29075     -7749.4189      1444.9359     -3517.4724     -960.8164     
      9800   297.73806     -7706.2074      1452.4876     -3481.1679     -236.80754    
      9900   295.14429     -7670.322       1473.7093     -3448.2141     -512.86677    
     10000   300.56001     -7652.4651      1431.7923     -3421.8428     -811.03729    
     10100   303.45217     -7677.5878      1455.9361     -3395.8897     -677.69506    
     10200   298.50293     -7668.1679      1476.697      -3411.7965     -369.09526    
     10300   292.73331     -7678.4924      1463.3933     -3489.1517     -647.02253    
     10400   299.49709     -7751.362       1429.8837     -3532.5462     -355.84467    
     10500   295.0024      -7694.3442      1433.5121     -3513.7548     -391.03418    
     10600   298.05126     -7653.3376      1480.5113     -3397.3579     -140.45238    
     10700   300.48678     -7626.4347      1482.2458     -3346.0409     -271.21981    
     10800   303.16732     -7637.0452      1446.9675     -3366.9683      151.29042    
     10900   299.67175     -7634.494       1401.6303     -3442.3052      892.33435    
     11000   298.52255     -7683.2041      1412.7503     -3490.5967      582.93592    
     11100   298.18327     -7629.3566      1387.9258     -3464.7331     -99.594018    
     11200   299.92054     -7641.9447      1434.6333     -3414.4361      229.13939    
     11300   303.90338     -7701.9364      1470.0043     -3401.9685     -174.40979    
     11400   299.79197     -7680.8377      1446.1533     -3443.0065      328.91051    
     11500   293.88172     -7645.3978      1387.238      -3521.5184      575.0986     
     11600   291.75251     -7634.0763      1368.6861     -3548.5762      812.32107    
     11700   297.66176     -7605.9806      1413.5972     -3420.542       495.95054    
     11800   302.33179     -7633.1495      1429.1216     -3388.699       399.81024    
     11900   302.51706     -7591.0989      1409.2079     -3364.8368     -210.10413    
     12000   298.01256     -7559.0413      1443.3383     -3340.595       327.52082    
     12100   298.93275     -7593.6819      1404.1568     -3405.8481     -99.180328    
     12200   298.05627     -7614.3186      1355.2943     -3483.5092      32.247415    
     12300   298.50539     -7648.6233      1416.9883     -3451.9378      89.697489    
     12400   308.32084     -7664.0194      1398.2329     -3394.6872      722.46973    
     12500   304.08022     -7644.1087      1410.8122     -3401.6861      964.37511    
     12600   303.72438     -7672.6265      1414.514      -3429.8157      356.66475    
     12700   299.63593     -7640.3783      1385.5626     -3464.5908     -399.84897    
     12800   299.82628     -7634.8857      1414.1434     -3428.7449      262.46698    
     12900   306.75433     -7616.1589      1433.7312     -3325.9159      1052.1624    
     13000   306.84029     -7618.5186      1439.5497     -3321.6566      880.21567    
     13100   300.76589     -7637.0267      1426.9724     -3409.3072      582.61069    
     13200   296.36361     -7598.4958      1399.2327     -3439.5102      1069.8569    
     13300   299.25932     -7560.1331      1380.6949     -3392.7202      910.54998    
     13400   305.6111      -7608.3879      1415.7935     -3346.7284      16.321591    
     13500   300.03722     -7609.8229      1454.9818     -3360.8793     -182.67651    
     13600   303.78331     -7642.4686      1411.003      -3402.6201      688.8442     
     13700   296.11705     -7662.1428      1405.4381     -3499.2477      714.77569    
     13800   289.24936     -7621.02        1389.0442     -3538.4711      1557.7083    
     13900   299.7041      -7649.7594      1379.6605     -3479.2393      823.11883    
     14000   302.95754     -7607.1281      1371.0226     -3414.9495      562.30853    
     14100   299.84219     -7615.3075      1412.9487     -3410.2131      752.73075    
     14200   301.84652     -7712.9586      1471.8913     -3430.2572      626.29794    
     14300   301.05224     -7640.2105      1380.609      -3456.1879      686.07033    
     14400   298.18363     -7603.9846      1365.8191     -3461.4644      395.33133    
     14500   303.44033     -7666.6379      1402.1318     -3438.8544      691.79872    
     14600   312.90805     -7649.3526      1412.4024     -3323.1347      776.08598    
     14700   303.23609     -7628.5034      1483.0518     -3321.7018      750.25371    
     14800   302.60198     -7617.6278      1411.4196     -3388.3632      344.1851     
     14900   300.19315     -7610.7942      1365.1715     -3450.209       758.40149    
     15000   299.34583     -7652.5137      1420.6846     -3444.3057      665.94169    
     15100   297.49798     -7588.0924      1382.6758     -3435.1004      333.05432    
     15200   297.90121     -7630.1869      1446.8311     -3409.2846      441.66518    
     15300   304.08551     -7702.228       1473.1002     -3397.4681     -261.10021    
     15400   298.21789     -7645.3634      1443.5789     -3424.7645      89.481496    
     15500   297.23694     -7599.2607      1383.1722     -3448.2032      959.09796    
     15600   296.25031     -7608.5926      1388.2479     -3461.6468      1108.4489    
     15700   301.92304     -7668.6813      1427.4765     -3429.6823      691.50501    
     15800   302.98603     -7626.5592      1442.6602     -3362.4777      144.35385    
     15900   302.88218     -7638.4865      1463.3958     -3354.6364     -196.14104    
     16000   290.52643     -7616.4932      1446.0445     -3465.0518     -50.837782    
     16100   298.60078     -7683.2391      1427.4952     -3475.1583     -904.17365    
     16200   296.89593     -7605.3473      1412.8151     -3427.8223     -268.00474    
     16300   295.32777     -7594.9231      1454.5156     -3390.3003      710.53953    
     16400   300.52893     -7638.7066      1442.671      -3397.4951     -70.443996    
     16500   301.37331     -7756.0421      1503.0087     -3446.6299      97.952826    
     16600   293.69398     -7753.4734      1443.9416     -3574.6386     -67.902565    
     16700   297.78951     -7682.9992      1354.263      -3555.7051     -318.57538    
     16800   298.9602      -7633.898       1370.8137     -3479.1517     -152.22986    
     16900   300.71203     -7675.3539      1461.145      -3413.9633      798.05576    
     17000   304.33947     -7667.2602      1445.459      -3387.7766      925.48961    
     17100   305.58464     -7660.9808      1397.5677     -3417.7934      1262.9522    
     17200   299.2909      -7687.0779      1383.8903     -3516.1756      781.88603    
     17300   288.50282     -7613.4548      1361.4921     -3565.4098      911.84832    
     17400   296.15455     -7646.2165      1388.2927     -3500.1177      976.33851    
     17500   299.00817     -7620.1778      1404.6279     -3431.1708      1687.2205    
     17600   302.94959     -7611.0905      1399.3163     -3390.6923      1424.4901    
     17700   305.35184     -7646.3206      1428.3402     -3374.5286      866.09927    
     17800   299.84783     -7639.7606      1362.2329     -3485.3295      967.39442    
     17900   300.95775     -7665.5562      1342.5545     -3520.4679      1107.3976    
     18000   294.27547     -7639.147       1419.1967     -3479.6422      534.74334    
     18100   304.68181     -7712.8671      1444.4848     -3431.1698      1034.531     
     18200   309.81746     -7718.8322      1455.9475     -3377.8488      1070.7103    
     18300   299.7454      -7672.7821      1410.1933     -3471.3444      1007.4744    
     18400   292.58606     -7628.8996      1373.7567     -3530.5667      1283.5667    
     18500   296.71269     -7620.5186      1399.5993     -3457.9158      967.57185    
     18600   305.69113     -7661.7155      1423.544      -3391.5602      103.36632    
     18700   298.30577     -7620.0632      1443.6638     -3398.5611      776.49134    
     18800   294.80762     -7617.9139      1420.3289     -3452.3216      392.67532    
     18900   296.90429     -7612.8376      1314.4152     -3533.6346     -139.16462    
     19000   297.86928     -7643.3965      1354.649      -3514.9736      147.20999    
     19100   297.01901     -7605.1581      1454.4356     -3384.8665      858.35349    
     19200   299.42351     -7625.8603      1488.4628     -3349.1506      340.47373    
     19300   301.38797     -7628.8956      1466.2255     -3356.13        109.70622    
     19400   301.79606     -7658.1473      1408.9978     -3438.8094     -75.008013    
     19500   296.56135     -7655.0741      1405.9158     -3487.564      -199.61149    
     19600   294.42523     -7650.6466      1448.0303     -3460.9138     -197.00661    
     19700   301.46211     -7630.8653      1399.5017     -3424.1331     -176.66921    
     19800   301.93165     -7638.4669      1432.5812     -3394.2829     -457.51329    
     19900   313.22859     -7623.2062      1451.3713     -3255.0344      117.7116     
     20000   311.59228     -7619.9952      1450.6681     -3267.7641      167.57381    
     20100   303.19732     -7624.9225      1439.8524     -3361.6814      603.06629    
     20200   298.39981     -7625.5535      1429.823      -3417.0164     -768.43798    
     20300   298.36006     -7678.0226      1464.2324     -3435.4463     -1203.9996    
     20400   299.00288     -7662.9932      1442.9403     -3435.723      -737.58667    
     20500   295.59831     -7612.2268      1429.9572     -3429.6432     -216.9077     
     20600   299.26037     -7642.238       1422.0301     -3433.4801      59.94483     
     20700   293.98132     -7583.1544      1422.2097     -3423.3757      806.13937    
     20800   300.02197     -7619.2179      1459.9174     -3365.4807      260.79847    
     20900   303.83148     -7579.7849      1455.4288     -3295.0621     -253.04884    
     21000   301.48589     -7564.8157      1450.3219     -3307.042      -678.46858    
     21100   293.9151      -7562.6895      1416.4016     -3409.3355     -799.48927    
     21200   297.51865     -7620.1317      1415.5062     -3434.1168      390.74594    
     21300   301.13099     -7597.685       1388.458      -3405.08        430.50346    
     21400   305.69748     -7632.7243      1429.1974     -3356.8564      264.09145    
     21500   302.61691     -7599.0542      1453.4176     -3327.6526     -132.87278    
     21600   299.88386     -7597.109       1398.5977     -3405.9777     -653.789      
     21700   295.75351     -7627.0515      1378.27       -3494.7098      243.32251    
     21800   301.98097     -7680.362       1377.6504     -3490.6495     -280.93539    
     21900   302.17775     -7643.0152      1395.1651     -3433.9556      559.0652     
     22000   301.45558     -7616.5082      1431.6082     -3377.7303      721.43212    
     22100   303.65743     -7587.8659      1424.7289     -3335.4637      1148.9971    
     22200   306.38685     -7612.8504      1397.1321     -3362.6285      972.2529     
     22300   290.07755     -7520.0304      1382.6827     -3436.1308      637.21194    
     22400   296.66061     -7569.2495      1387.8429     -3418.888       197.58421    
     22500   305.8094      -7588.65        1388.612      -3352.3254     -253.06347    
     22600   296.10805     -7576.5065      1436.7289     -3382.4045      358.45835    
     22700   299.13064     -7703.0122      1439.8548     -3477.6378     -100.15153    
     22800   302.44136     -7692.314       1389.3921     -3486.5726     -144.21581    
     22900   299.26401     -7631.522       1388.795      -3455.9654      608.01149    
     23000   300.28648     -7602.7644      1408.3037     -3398.1778      278.85127    
     23100   305.45435     -7618.2534      1430.9794     -3342.8675     -197.81799    
     23200   301.60931     -7617.0653      1399.655      -3408.8091     -465.28297    
     23300   295.75784     -7638.9769      1394.2989     -3490.5659      84.218606    
     23400   295.95711     -7596.3279      1387.7461     -3452.6141     -56.416341    
     23500   307.15966     -7655.6279      1410.3424     -3384.9992     -188.80249    
     23600   295.68987     -7583.9142      1444.9141     -3385.5211      1.2667198    
     23700   299.95631     -7593.771       1446.658      -3353.9047     -564.63772    
     23800   302.31621     -7564.4575      1448.3613     -3300.9124      579.894      
     23900   298.64867     -7494.1937      1380.6983     -3332.4638      732.61146    
     24000   299.61102     -7551.0147      1369.4384     -3391.5834      258.08818    
     24100   297.89844     -7624.915       1404.312      -3446.5577      672.68467    
     24200   292.98649     -7698.0111      1454.8421     -3514.864       524.98346    
     24300   291.19249     -7686.5974      1383.4379     -3591.5603     -284.25223    
     24400   295.6172      -7617.2527      1364.6774     -3499.773      -511.72183    
     24500   297.92539     -7596.9444      1397.6819     -3424.9662      736.10256    
     24600   303.70164     -7630.8609      1395.3945     -3407.3814      1409.5709    
     24700   297.6939      -7547.5106      1393.4576     -3381.9123      1271.2707    
     24800   310.3869      -7619.7924      1411.6546     -3317.7992      381.45761    
     24900   308.01285     -7631.9031      1448.9049     -3314.767      -362.56335    
     25000   291.86444     -7569.4243      1417.152      -3434.4159     -245.7998     
     25100   297.74139     -7644.7151      1408.1921     -3463.9401     -294.82784    
     25200   298.87523     -7659.3039      1425.5031     -3450.6596     -517.36149    
     25300   297.37735     -7609.818       1446.8303     -3393.7948     -78.755674    
     25400   308.48221     -7612.238       1411.3494     -3328.2867      431.11516    
     25500   300.87953     -7556.692       1376.619      -3378.2675      465.38859    
     25600   285.69092     -7501.5774      1368.0639     -3473.1452      849.94325    
     25700   302.17109     -7616.7545      1385.9806     -3416.9414     -697.46674    
     25800   297.3349      -7576.3953      1438.6286     -3368.9691     -378.04107    
     25900   304.73371     -7621.5247      1437.542      -3346.2869      453.88508    
     26000   294.525       -7559.8338      1433.3853     -3383.8168     -154.31287    
     26100   293.03681     -7615.0876      1412.5082     -3473.8058     -1368.7765    
     26200   301.8221      -7643.6266      1381.6704     -3451.3735     -1319.951     
     26300   298.16246     -7595.7749      1439.5739     -3379.6972     -506.22732    
     26400   300.15858     -7566.0689      1444.3523     -3326.6247      249.89659    
     26500   307.88322     -7585.3254      1486.9429     -3231.3584     -429.92807    
     26600   307.52334     -7581.8879      1426.8431     -3291.3719     -1483.0207    
     26700   298.33423     -7595.4899      1430.4895     -3386.8971     -1376.2773    
     26800   295.40547     -7617.3721      1450.0648     -3416.4767     -671.62328    
     26900   298.88617     -7673.6403      1450.1346     -3440.2626     -708.36043    
     27000   297.55108     -7660.786       1429.73       -3460.2453     -60.984847    
     27100   301.04789     -7655.2038      1444.9645     -3406.8661     -371.80962    
     27200   301.35411     -7617.4072      1465.7996     -3345.3829     -409.13067    
     27300   298.11684     -7596.2573      1475.3385     -3344.8397     -850.12462    
     27400   298.40099     -7602.046       1432.4302     -3390.8906     -598.79378    
     27500   296.67319     -7655.8133      1427.6268     -3465.5508     -231.01132    
     27600   296.57852     -7681.3779      1413.8084     -3505.8154     -166.81687    
     27700   294.90541     -7620.3608      1393.4946     -3480.6922      497.15514    
     27800   303.3117      -7579.8008      1390.7259     -3364.6211      279.13975    
     27900   304.56547     -7588.9098      1415.0814     -3337.6993      468.0209     
     28000   300.47599     -7574.7639      1394.9453     -3381.7709      319.45406    
     28100   296.80613     -7593.3025      1401.6745     -3427.7543      214.35153    
     28200   295.04041     -7610.4985      1383.9047     -3479.1626     -471.92677    
     28300   290.69374     -7597.2102      1346.5385     -3543.7169      36.010187    
     28400   300.59979     -7656.7381      1390.7979     -3466.7398      834.73838    
     28500   307.02812     -7604.3471      1328.5347     -3416.751       452.98448    
     28600   299.22226     -7599.8961      1393.2982     -3420.2251      554.89463    
     28700   296.32987     -7609.9089      1436.5528     -3413.9174      347.23796    
     28800   303.5402      -7583.9499      1398.8063     -3358.5619      498.09534    
     28900   303.74425     -7557.5458      1428.9487     -3300.1152      480.59377    
     29000   304.14488     -7534.9917      1389.8986     -3312.8806      47.99471     
     29100   295.72568     -7530.387       1391.9044     -3384.6701      47.74811     
     29200   294.50394     -7581.3537      1400.5009     -3438.4171     -135.86581    
     29300   295.90082     -7568.6489      1431.9785     -3381.227       64.908026    
     29400   300.74224     -7535.2975      1458.6692     -3276.1014     -64.427726    
     29500   303.1941      -7543.5176      1426.3967     -3293.7621      663.94493    
     29600   303.55209     -7656.5105      1440.0276     -3389.7906      182.7348     
     29700   299.50055     -7624.8642      1377.8936     -3458.0063     -60.746212    
     29800   299.75436     -7612.0175      1374.6439     -3446.0458      292.12062    
     29900   305.98112     -7650.2705      1431.5439     -3369.4149     -17.594435    
     30000   302.26919     -7582.3545      1408.5685     -3359.04       -767.96686    
Loop time of 477.235 on 1 procs for 30000 steps with 3125 atoms

Performance: 5.431 ns/day, 4.419 hours/ns, 62.862 timesteps/s, 196.444 katom-step/s
100.0% CPU use with 1 MPI tasks x 1 OpenMP threads

MPI task timing breakdown:
Section |  min time  |  avg time  |  max time  |%varavg| %total
---------------------------------------------------------------
Pair    | 396.29     | 396.29     | 396.29     |   0.0 | 83.04
Bond    | 1.6916     | 1.6916     | 1.6916     |   0.0 |  0.35
Kspace  | 45.407     | 45.407     | 45.407     |   0.0 |  9.51
Neigh   | 31.142     | 31.142     | 31.142     |   0.0 |  6.53
Comm    | 1.408      | 1.408      | 1.408      |   0.0 |  0.30
Output  | 0.039736   | 0.039736   | 0.039736   |   0.0 |  0.01
Modify  | 0.9308     | 0.9308     | 0.9308     |   0.0 |  0.20
Other   |            | 0.3294     |            |       |  0.07

Nlocal:           3125 ave        3125 max        3125 min
Histogram: 1 0 0 0 0 0 0 0 0 0
Nghost:          17002 ave       17002 max       17002 min
Histogram: 1 0 0 0 0 0 0 0 0 0
Neighs:    1.33488e+06 ave 1.33488e+06 max 1.33488e+06 min
Histogram: 1 0 0 0 0 0 0 0 0 0

Total # of neighbors = 1334878
Ave neighs/atom = 427.16096
Ave special neighs/atom = 2.25088
Neighbor list builds = 1533
Dangerous builds = 0
unfix ave_dihedral_histograms

variable peg_com_x equal xcm(PEG,x)
variable peg_com_y equal xcm(PEG,y)
variable peg_com_z equal xcm(PEG,z)
fix recenter_PEG PEG recenter ${peg_com_x} ${peg_com_y} ${peg_com_z}
fix recenter_PEG PEG recenter 31.7773910516141 ${peg_com_y} ${peg_com_z}
fix recenter_PEG PEG recenter 31.7773910516141 -6.0110754773669 ${peg_com_z}
fix recenter_PEG PEG recenter 31.7773910516141 -6.0110754773669 0.267399144137562


fix oxygen_6_force pull_oxygen_6 addforce ${force_0} 0 0
fix oxygen_6_force pull_oxygen_6 addforce 5 0 0
fix oxygen_7_force pull_oxygen_7 addforce -${force_0} 0 0
fix oxygen_7_force pull_oxygen_7 addforce -5 0 0

run 30000
PPPM initialization ...
  using 12-bit tables for long-range coulomb (src/kspace.cpp:342)
  G vector (1/distance) = 0.24952423
  grid = 40 18 18
  stencil order = 5
  estimated absolute RMS force accuracy = 0.0031205121
  estimated relative force accuracy = 9.3973294e-06
  using double precision KISS FFT
  3d grid and FFT values/proc = 29375 12960
Generated 36 of 36 mixed pair_coeff terms from geometric mixing rule
Per MPI rank memory allocation (min/avg/max) = 32.74 | 32.74 | 32.74 Mbytes
   Step          Temp          E_pair         E_mol          TotEng         Press     
     30000   302.26919     -7582.3545      1408.5685     -3359.04       -767.96686    
     30100   301.93566     -7649.0046      1452.083      -3385.2814     -476.08387    
     30200   300.47091     -7654.1945      1440.2898     -3415.9044     -988.68417    
     30300   300.56348     -7657.2993      1442.6108     -3415.8261     -705.25222    
     30400   299.50321     -7662.6581      1449.7275     -3423.9415     -655.05025    
     30500   297.61084     -7683.8104      1428.4516     -3483.9917      162.54433    
     30600   293.92686     -7723.768       1458.5789     -3528.1272      48.190707    
     30700   299.31876     -7735.9062      1428.1729     -3520.4618     -214.91711    
     30800   304.19485     -7612.1078      1373.1593     -3406.2706      114.95845    
     30900   305.14871     -7613.6675      1404.1833     -3367.9239     -417.25444    
     31000   302.55405     -7631.1319      1435.0721     -3378.6612     -531.94107    
     31100   308.46955     -7688.6585      1396.8925     -3419.282       136.14342    
     31200   297.60531     -7661.5057      1386.1274     -3504.0627      200.12237    
     31300   293.86929     -7626.76        1378.296      -3511.9383      1095.3353    
     31400   298.20532     -7570.7649      1350.2856     -3443.5763      1274.2459    
     31500   295.92986     -7523.1204      1402.6336     -3364.773       873.54789    
     31600   300.99184     -7588.8259      1426.2006     -3359.7741      509.29124    
     31700   305.48047     -7655.5388      1394.7407     -3416.1485      408.88778    
     31800   304.72705     -7661.4942      1349.4369     -3474.4236      401.19252    
     31900   300.52498     -7621.5099      1340.3573     -3482.6488      1300.7881    
     32000   298.05259     -7664.819       1388.5228     -3500.8154      951.10744    
     32100   299.28089     -7777.0987      1388.3275     -3601.8524      506.01412    
     32200   291.64056     -7776.3054      1408.2725     -3652.2613      967.50716    
     32300   294.48623     -7714.166       1385.4986     -3586.3967      707.54836    
     32400   302.39208     -7678.2942      1347.7011     -3514.7028      470.43207    
     32500   301.40573     -7694.7733      1407.1313     -3480.9366     -87.221107    
     32600   304.40012     -7731.9818      1343.8475     -3553.545       368.21966    
     32700   295.68337     -7720.5418      1352.3257     -3614.7975      245.39364    
     32800   293.49412     -7694.7525      1385.989      -3575.7313      476.46609    
     32900   309.23297     -7696.2881      1316.3099     -3500.3851      365.75027    
     33000   300.04844     -7618.5559      1318.0007     -3506.4891      199.81591    
     33100   296.50275     -7697.3865      1389.391      -3546.9469     -748.15592    
     33200   294.41105     -7741.1507      1374.7482     -3624.832      -270.24742    
     33300   288.07615     -7716.651       1396.9457     -3637.1256     -752.47381    
     33400   303.25348     -7774.5431      1411.1729     -3539.4585     -993.76588    
     33500   301.24998     -7695.9667      1384.7868     -3505.9248     -874.91376    
     33600   298.24058     -7661.1079      1361.8302     -3522.0464     -463.65433    
     33700   296.41803     -7701.2897      1414.0646     -3526.9654     -340.31662    
     33800   301.00988     -7706.9813      1416.0169     -3487.9451      114.1352     
     33900   308.86256     -7733.0794      1407.9499     -3448.9858      179.53439    
     34000   301.18203     -7687.1498      1346.9915     -3535.536      -114.03518    
     34100   298.16116     -7704.5495      1359.714      -3568.3436      234.67287    
     34200   299.66468     -7732.0155      1405.9877     -3535.5352     -306.74574    
     34300   301.70869     -7721.1687      1408.9464     -3502.6956     -418.01602    
     34400   301.9253      -7649.7139      1399.4596     -3438.7106      155.69425    
     34500   306.54507     -7609.7548      1382.4737     -3372.7179      527.37209    
     34600   297.71205     -7582.1815      1390.2233     -3419.6486      1022.2426    
     34700   299.9617      -7709.0935      1408.3029     -3507.532       215.94589    
     34800   305.30084     -7716.3723      1348.6361     -3524.7593     -207.53416    
     34900   301.47884     -7677.6414      1354.4659     -3515.7892     -315.41537    
     35000   302.25824     -7725.8626      1380.2373     -3530.9813      94.004418    
     35100   297.92373     -7649.7473      1332.9186     -3542.5478      269.62449    
     35200   300.83851     -7642.0379      1370.653      -3469.9615     -247.72644    
     35300   304.66182     -7652.2597      1417.834      -3397.3994     -129.81383    
     35400   300.66427     -7625.2833      1403.3508     -3422.1316     -1001.7795    
     35500   296.01049     -7689.2885      1437.9646     -3494.8592     -1361.9528    
     35600   294.86924     -7664.3834      1369.6463     -3548.8998     -1517.4622    
     35700   297.87834     -7606.289       1360.7433     -3471.6875     -1236.7789    
     35800   302.51695     -7583.347       1390.2345     -3376.0593      359.9293     
     35900   304.72157     -7658.4007      1403.4705     -3417.3476      617.58863    
     36000   306.56805     -7678.6119      1300.8774     -3522.9573      435.52147    
     36100   303.72222     -7729.8855      1340.2684     -3561.3404      711.23785    
     36200   292.40625     -7636.4409      1341.5595     -3571.9796      194.39541    
     36300   305.88838     -7686.6975      1323.5629     -3514.6866      444.03818    
     36400   308.95616     -7687.5127      1360.2333     -3450.264       258.1146     
     36500   298.70195     -7691.1262      1379.6901     -3529.9085      990.21648    
     36600   301.44146     -7729.8003      1347.7174     -3575.0447      345.25742    
     36700   299.45331     -7713.2568      1354.7265     -3570.006      -56.690681    
     36800   303.9737      -7717.3266      1374.2573     -3512.4508      520.23557    
     36900   312.19501     -7712.1446      1332.3876     -3472.5812      816.27941    
     37000   299.27772     -7660.5948      1332.0235     -3541.682       1385.3656    
     37100   293.06723     -7641.5623      1295.8644     -3616.641       1787.6046    
     37200   299.78129     -7679.2276      1310.1091     -3577.54        1243.6626    
     37300   306.13863     -7734.9667      1355.8442     -3528.3441      414.16054    
     37400   301.10277     -7662.5558      1314.6532     -3544.0184      301.56529    
     37500   292.18543     -7634.3924      1297.5978     -3615.949       650.33152    
     37600   293.86643     -7688.5839      1335.8247     -3616.2602     -125.95799    
     37700   304.25958     -7715.1612      1374.3167     -3507.5639     -461.76161    
     37800   305.22437     -7683.4888      1362.2105     -3479.0135     -462.42315    
     37900   302.09547     -7716.9752      1374.4614     -3529.3855     -550.18695    
     38000   295.96889     -7684.8056      1334.5504     -3594.1779     -108.90448    
     38100   299.88302     -7700.7591      1339.6128     -3568.6205      288.24291    
     38200   302.79789     -7716.8109      1355.6091     -3541.5326     -49.887181    
     38300   298.70629     -7726.2319      1408.5258     -3536.138      -641.10006    
     38400   299.67964     -7716.2481      1398.652      -3526.9642     -488.10684    
     38500   302.53336     -7701.5609      1355.8517     -3528.5032     -287.35389    
     38600   295.27301     -7669.4841      1317.0133     -3602.8736     -109.86067    
     38700   293.03011     -7670.8811      1282.3092     -3659.8607     -254.34501    
     38800   290.16594     -7627.8715      1365.6912     -3560.1405     -418.15425    
     38900   300.16721     -7706.6416      1412.1634     -3499.3059     -949.07224    
     39000   298.2158      -7660.5148      1400.7216     -3482.7925     -85.607674    
     39100   304.15133     -7703.5023      1412.2058     -3459.0239     -178.62094    
     39200   294.84557     -7662.1097      1379.61       -3536.8829     -271.74414    
     39300   298.20626     -7693.8788      1325.3975     -3591.5695     -961.51842    
     39400   298.69755     -7687.2209      1361.7343     -3543.9999     -415.27115    
     39500   301.61042     -7621.4513      1387.234      -3425.6059     -696.5726     
     39600   298.83731     -7652.0393      1441.1201     -3428.131      -832.44593    
     39700   305.84315     -7716.6026      1380.1316     -3488.4441      23.698512    
     39800   294.68661     -7681.5969      1401.1762     -3536.2841      317.60364    
     39900   299.46437     -7688.0433      1382.0162     -3517.3998     -135.67185    
     40000   308.52271     -7675.4315      1338.0746     -3464.3778     -193.13       
     40100   305.16471     -7601.0453      1387.9974     -3371.3386     -413.46834    
     40200   309.09759     -7680.7615      1395.6815     -3406.7476     -456.77926    
     40300   301.22605     -7682.7193      1363.9404     -3513.7466     -267.10453    
     40400   297.43699     -7644.5456      1346.7612     -3528.0361      311.26727    
     40500   301.47288     -7632.487       1328.0083     -3497.148      -374.38375    
     40600   304.91659     -7660.8445      1375.2305     -3446.2154     -677.54247    
     40700   300.81741     -7581.9024      1382.1911     -3398.4843     -60.004139    
     40800   306.37918     -7678.2692      1398.4626     -3426.7882     -173.13672    
     40900   302.78209     -7694.2065      1337.8267     -3536.8576      100.29369    
     41000   301.86693     -7722.2601      1346.8446     -3564.4153      668.20863    
     41100   296.90264     -7714.577       1381.126      -3568.6785      409.35024    
     41200   302.57031     -7691.0665      1338.8484     -3534.6681      69.505238    
     41300   301.03628     -7677.0093      1405.7762     -3467.968      -795.30934    
     41400   305.4027      -7718.7388      1452.8989     -3421.9145     -1371.1449    
     41500   301.14221     -7738.4852      1423.2258     -3511.0079     -1489.9503    
     41600   296.64878     -7782.9868      1445.1266     -3575.4517     -2004.9649    
     41700   297.5705      -7713.428       1378.3352     -3564.1014     -1192.0817    
     41800   297.79243     -7665.8507      1370.2928     -3522.4997     -270.14534    
     41900   303.5845      -7658.6093      1389.1479     -3442.4672     -28.369231    
     42000   300.81786     -7589.5208      1346.2592     -3442.0305     -695.1803     
     42100   300.29688     -7687.0896      1410.847      -3479.8629     -505.38684    
     42200   301.37862     -7743.4399      1408.0767     -3528.9104     -426.75557    
     42300   298.2219      -7771.715       1431.2602     -3563.3973     -924.51733    
     42400   300.50132     -7742.6204      1382.7871     -3561.5497     -693.32586    
     42500   303.0402      -7693.8621      1369.9168     -3502.0196     -501.66367    
     42600   310.83565     -7656.6644      1370.2037     -3391.9434     -484.65046    
     42700   303.36868     -7645.081       1386.6963     -3433.4002      77.051397    
     42800   295.58633     -7654.2978      1412.4436     -3489.3394     -199.69093    
     42900   296.46287     -7674.9109      1412.911      -3501.3226     -1024.5391    
     43000   303.63034     -7705.4881      1376.4495     -3501.6175     -778.46907    
     43100   297.83377     -7627.1014      1321.3061     -3532.3522     -28.344054    
     43200   293.55574     -7694.4188      1377.1707     -3583.6422     -436.28946    
     43300   300.06256     -7708.7516      1360.1179     -3554.436      -66.230974    
     43400   301.7109      -7631.0373      1376.9759     -3444.5143      800.31927    
     43500   304.05756     -7634.6921      1377.8409     -3425.4518      1143.0191    
     43600   295.99792     -7555.401       1339.2908     -3459.7626      205.92463    
     43700   297.3418      -7623.2805      1351.0944     -3503.3242     -60.928905    
     43800   299.86125     -7676.6532      1340.9024     -3543.4277     -1121.0069    
     43900   293.65897     -7685.5523      1422.8458     -3528.1393     -740.11308    
     44000   300.06855     -7677.2054      1434.511      -3448.441      -313.54753    
     44100   309.16039     -7677.4703      1388.4891     -3410.064      -409.98008    
     44200   300.20768     -7657.3374      1395.2149     -3466.5733     -176.69808    
     44300   296.87423     -7645.7992      1348.7558     -3532.5355      786.34711    
     44400   296.29005     -7634.3655      1348.5774     -3526.7201      1312.462     
     44500   301.77781     -7661.0769      1346.7643     -3504.1424      1814.1852    
     44600   302.71034     -7614.5552      1331.3996     -3464.3016      1029.3797    
     44700   300.64634     -7567.322       1351.3689     -3416.3192      384.35879    
     44800   310.3146      -7606.9779      1383.3521     -3333.9605     -217.86506    
     44900   300.39966     -7560.4497      1423.7572     -3339.3556      135.12303    
     45000   294.79946     -7633.6508      1407.5384     -3480.9249     -267.57068    
     45100   299.71343     -7689.6114      1400.9257     -3497.7391     -784.85558    
     45200   293.93561     -7644.7074      1380.3896     -3527.1745     -834.75661    
     45300   296.59439     -7638.3248      1373.6181     -3502.8047     -878.91195    
     45400   301.25963     -7644.7993      1414.1689     -3425.2855     -770.34383    
     45500   309.23088     -7726.33        1443.9189     -3402.8374     -1392.7296    
     45600   302.51098     -7699.9295      1391.2834     -3491.6486     -734.66787    
     45700   296.28509     -7678.6265      1387.0426     -3532.5621     -194.30537    
     45800   302.32042     -7713.6114      1368.3473     -3530.041      -232.74633    
     45900   307.70315     -7750.7154      1365.9694     -3519.3987     -889.43471    
     46000   298.38035     -7719.3675      1381.8691     -3558.9654     -480.10149    
     46100   294.73539     -7670.2989      1354.9056     -3570.8024     -294.6841     
     46200   299.16514     -7649.3809      1387.5718     -3475.9682      45.851636    
     46300   307.55175     -7711.0603      1433.1688     -3413.9541     -589.84734    
     46400   300.63218     -7655.4305      1414.9139     -3441.0146     -808.75557    
     46500   297.06658     -7695.2192      1420.5663     -3508.3538     -509.99775    
     46600   295.53169     -7646.3466      1354.5942     -3539.7464     -493.69939    
     46700   295.18909     -7654.5357      1392.279      -3513.441      -1051.2563    
     46800   299.21238     -7648.7718      1398.3524     -3464.1386     -878.93614    
     46900   306.83503     -7677.4567      1411.687      -3408.5064     -544.22236    
     47000   302.41164     -7629.7162      1354.2021     -3459.4417      299.3237     
     47100   297.239       -7696.0851      1385.7533     -3542.4271      224.78215    
     47200   298.59253     -7710.3527      1379.4944     -3550.3495      534.35812    
     47300   296.58041     -7667.388       1392.3638     -3513.2523      276.34797    
     47400   304.30094     -7633.6498      1375.5568     -3424.4273      17.949076    
     47500   309.88282     -7676.8146      1375.4804     -3415.6897      454.27436    
     47600   301.02268     -7642.2208      1375.3933     -3463.6891      1068.0328    
     47700   303.17813     -7681.6403      1355.2615     -3503.1687      857.47789    
     47800   294.34277     -7639.8895      1383.5201     -3515.4346      1189.9576    
     47900   299.71774     -7626.0187      1345.5875     -3489.4444      686.25498    
     48000   304.08798     -7597.0249      1323.9299     -3441.4123      1036.2692    
     48100   296.24361     -7594.8719      1431.2579     -3404.9784      910.38267    
     48200   302.73615     -7592.2556      1389.1073     -3384.054       1219.4175    
     48300   304.86187     -7594.2412      1383.9772     -3371.3748      583.53656    
     48400   299.42091     -7643.7584      1403.6284     -3451.9073     -63.284353    
     48500   294.12357     -7639.8039      1372.0317     -3528.8787     -75.071568    
     48600   294.81274     -7639.5041      1392.8546     -3501.3383     -360.32474    
     48700   309.95106     -7740.4488      1414.0245     -3440.1444     -129.55631    
     48800   303.60889     -7706.9105      1433.661      -3446.0281      103.81112    
     48900   296.76176     -7662.8075      1419.0047     -3480.3423      54.852548    
     49000   299.09895     -7690.9246      1418.997      -3486.7031     -74.801171    
     49100   299.87638     -7652.929       1430.9545     -3429.5105     -390.46997    
     49200   307.94004     -7615.7365      1441.5393     -3306.644      -22.009298    
     49300   307.42033     -7664.4882      1447.2739     -3354.5007     -144.99111    
     49400   296.76144     -7642.9613      1435.4467     -3444.0571     -202.57739    
     49500   297.36675     -7690.2414      1424.9734     -3496.1738      73.438401    
     49600   294.29623     -7627.3388      1383.9942     -3502.8432     -655.71872    
     49700   297.04711     -7619.0241      1423.2837     -3429.6227      66.074461    
     49800   306.54708     -7610.2404      1404.0554     -3351.6031      234.70783    
     49900   303.38917     -7560.3282      1382.323      -3352.8299     -126.06656    
     50000   308.43132     -7655.1757      1395.8518     -3387.1958     -102.77389    
     50100   295.71764     -7626.5196      1411.7388     -3461.0433      401.72704    
     50200   298.39952     -7682.366       1387.1085     -3516.5461      625.17494    
     50300   293.32023     -7708.2687      1360.702      -3616.1539      314.54357    
     50400   294.85033     -7732.4943      1381.5311     -3605.302       279.37182    
     50500   295.55861     -7673.9936      1411.0008     -3510.736       352.61871    
     50600   297.19182     -7643.3537      1386.3676     -3489.5209      995.4651     
     50700   300.50269     -7669.9074      1403.6783     -3467.9329      172.07351    
     50800   304.85785     -7665.8138      1413.9378     -3413.0243      299.61599    
     50900   302.42197     -7653.7824      1461.7255     -3375.8882      178.43358    
     51000   295.09718     -7641.4593      1410.8855     -3482.6139     -41.905603    
     51100   297.58667     -7650.8422      1355.0793     -3524.6207     -449.82965    
     51200   296.08623     -7631.9491      1393.6151     -3481.1641      178.76956    
     51300   301.94771     -7602.6259      1378.2816     -3412.5919     -67.377804    
     51400   302.29101     -7578.1615      1388.7459     -3374.4664      369.50994    
     51500   302.34492     -7611.9194      1416.4621     -3380.0061     -99.749618    
     51600   301.76788     -7633.8315      1400.6126     -3423.1412     -570.88268    
     51700   296.04488     -7638.414       1426.7782     -3454.851      -959.92571    
     51800   293.48523     -7640.7844      1433.6762     -3474.1588     -670.00436    
     51900   296.21725     -7683.9062      1424.5206     -3500.9956     -756.72955    
     52000   296.75929     -7650.5581      1372.8257     -3514.2949     -1190.0001    
     52100   300.88306     -7677.2516      1398.5393     -3476.874      -1227.0792    
     52200   303.6645      -7674.4682      1432.2888     -3414.4402     -614.86145    
     52300   305.48874     -7690.8063      1430.0017     -3416.078      -356.15876    
     52400   296.35995     -7670.4521      1423.3233     -3487.41       -713.54381    
     52500   289.97699     -7655.8132      1409.2225     -3546.3103     -249.72536    
     52600   299.09157     -7701.7649      1417.743      -3498.866      -251.64915    
     52700   301.63997     -7636.2754      1405.4346     -3421.9541      1.154828     
     52800   305.728       -7647.3514      1383.3116     -3417.0852     -42.095987    
     52900   301.15919     -7642.1415      1394.1159     -3443.616       500.60613    
     53000   299.16294     -7641.2426      1376.8399     -3478.5823      560.50484    
     53100   300.02475     -7667.9038      1347.3648     -3526.6933     -84.04292     
     53200   289.25652     -7606.488       1368.4258     -3544.4908      765.4856     
     53300   301.84136     -7596.6505      1346.3752     -3439.5133      308.54485    
     53400   299.31338     -7578.8737      1394.8624     -3396.7899     -353.85015    
     53500   301.87918     -7595.8486      1419.9552     -3364.7792      200.05269    
     53600   298.76302     -7623.3812      1421.765      -3419.5199      192.04344    
     53700   293.61032     -7660.5113      1416.967      -3509.4301      267.09212    
     53800   296.27758     -7654.962       1400.6552     -3495.3551      434.17591    
     53900   298.26448     -7601.9454      1373.9004     -3450.5911      526.64193    
     54000   300.99235     -7574.4886      1368.734      -3402.8986      327.89665    
     54100   302.65946     -7627.6654      1422.8606     -3386.4246      31.283654    
     54200   308.03524     -7706.871       1449.5055     -3388.9257      166.92466    
     54300   304.09488     -7664.8058      1406.5062     -3426.5526      307.9021     
     54400   300.31826     -7603.4189      1343.3059     -3463.5342      257.46115    
     54500   302.35628     -7631.7252      1355.4929     -3460.6753      545.27368    
     54600   297.19901     -7620.4899      1384.2206     -3468.7371      1025.949     
     54700   299.02094     -7638.8728      1408.4296     -3445.945       946.01392    
     54800   303.12096     -7619.4322      1430.7906     -3365.9639      1137.3473    
     54900   303.97567     -7622.0913      1437.3762     -3354.0783      297.97705    
     55000   294.8415      -7592.7346      1415.7694     -3431.3863     -384.07487    
     55100   295.7671      -7610.0122      1423.427      -3432.387      -373.48377    
     55200   310.36446     -7620.4924      1431.1901     -3299.1728     -499.46136    
     55300   303.75411     -7594.3526      1454.1516     -3311.6274      15.662231    
     55400   300.43231     -7616.688       1432.8253     -3386.2218     -128.93031    
     55500   297.32119     -7636.7486      1435.9523     -3432.1263     -402.75725    
     55600   300.95801     -7660.6451      1419.4921     -3438.6168     -400.03054    
     55700   298.81195     -7661.3575      1426.6286     -3452.177      -368.20287    
     55800   300.81756     -7624.5052      1387.3193     -3435.9575      215.85719    
     55900   304.04073     -7608.649       1382.7315     -3394.6749      964.64435    
     56000   301.56316     -7618.1621      1415.2707     -3394.7199      1117.0739    
     56100   303.07803     -7676.52        1385.9686     -3468.2734      1069.9654    
     56200   300.00838     -7721.842       1383.9625     -3544.1863     -83.893993    
     56300   287.94588     -7624.5917      1412.8694     -3530.3557      170.89295    
     56400   293.62947     -7618.8262      1428.0063     -3456.5274      601.68536    
     56500   298.75804     -7600.3155      1401.8403     -3416.4253      105.91675    
     56600   304.22101     -7643.0147      1398.4212     -3411.6721      493.64315    
     56700   301.63409     -7652.2033      1379.8156     -3463.5558      596.26171    
     56800   301.85773     -7719.4132      1384.8693     -3523.6293     -19.755256    
     56900   299.52036     -7681.9212      1367.4084     -3525.3641     -717.18223    
     57000   293.25303     -7653.5879      1432.7888     -3490.012      -898.75042    
     57100   298.34452     -7673.548       1447.8669     -3447.4818     -654.64837    
     57200   297.82423     -7609.432       1435.3504     -3400.7273     -599.57287    
     57300   299.50821     -7629.5735      1464.1215     -3376.4164     -222.15491    
     57400   300.30861     -7604.7029      1433.2364     -3374.9775     -30.355871    
     57500   302.65393     -7642.3364      1392.0681     -3431.9396     -296.21798    
     57600   296.66865     -7691.8263      1432.9225     -3496.3103     -613.23764    
     57700   299.7404      -7715.5095      1450.9425     -3473.3692     -366.04282    
     57800   311.49184     -7736.5545      1423.2676     -3412.6592     -665.81872    
     57900   300.9368      -7594.8136      1444.1733     -3348.3016     -781.21109    
     58000   305.44647     -7603.7915      1459.9815     -3299.4771     -452.05534    
     58100   302.80324     -7577.7923      1416.3678     -3341.7054     -577.82131    
     58200   301.35051     -7648.8146      1403.3869     -3439.2365     -304.74738    
     58300   299.99983     -7700.094       1438.1716     -3468.3087     -376.61742    
     58400   297.82451     -7702.1366      1432.224      -3496.5557     -1400.8659    
     58500   297.10532     -7755.6339      1426.1091     -3562.8651     -1265.3061    
     58600   282.10022     -7683.6126      1430.2316     -3626.4494     -1093.9668    
     58700   296.16619     -7712.4986      1441.6987     -3512.8854     -1125.8506    
     58800   297.8682      -7687.6935      1460.6562     -3453.2736     -626.89819    
     58900   297.72468     -7653.3602      1437.5275     -3443.4054     -1173.331     
     59000   300.31962     -7684.922       1487.0005     -3401.33       -1282.8847    
     59100   300.03682     -7657.9095      1523.0726     -3340.8789     -1061.5278    
     59200   299.02261     -7671.3658      1510.7094     -3376.1427     -1347.691     
     59300   290.11264     -7597.0314      1415.4212     -3480.0667     -1650.4526    
     59400   298.04799     -7643.0695      1404.1124     -3463.5191     -1102.8069    
     59500   302.17167     -7664.1237      1437.3562     -3412.9297     -644.35271    
     59600   296.89746     -7630.2394      1454.3086     -3411.2066     -1224.5667    
     59700   290.17382     -7703.9937      1467.9237     -3533.9568     -1686.079     
     59800   294.55945     -7718.9926      1431.2472     -3544.7929     -2118.0907    
     59900   296.54509     -7707.7975      1474.6394     -3471.7152     -2197.1358    
     60000   296.0363      -7656.8821      1498.7034     -3401.4737     -1330.3829    
Loop time of 475.598 on 1 procs for 30000 steps with 3125 atoms

Performance: 5.450 ns/day, 4.404 hours/ns, 63.078 timesteps/s, 197.120 katom-step/s
100.0% CPU use with 1 MPI tasks x 1 OpenMP threads

MPI task timing breakdown:
Section |  min time  |  avg time  |  max time  |%varavg| %total
---------------------------------------------------------------
Pair    | 395.58     | 395.58     | 395.58     |   0.0 | 83.18
Bond    | 1.6675     | 1.6675     | 1.6675     |   0.0 |  0.35
Kspace  | 44.787     | 44.787     | 44.787     |   0.0 |  9.42
Neigh   | 30.807     | 30.807     | 30.807     |   0.0 |  6.48
Comm    | 1.3806     | 1.3806     | 1.3806     |   0.0 |  0.29
Output  | 0.039427   | 0.039427   | 0.039427   |   0.0 |  0.01
Modify  | 1.0248     | 1.0248     | 1.0248     |   0.0 |  0.22
Other   |            | 0.3119     |            |       |  0.07

Nlocal:           3125 ave        3125 max        3125 min
Histogram: 1 0 0 0 0 0 0 0 0 0
Nghost:          17315 ave       17315 max       17315 min
Histogram: 1 0 0 0 0 0 0 0 0 0
Neighs:    1.33588e+06 ave 1.33588e+06 max 1.33588e+06 min
Histogram: 1 0 0 0 0 0 0 0 0 0

Total # of neighbors = 1335880
Ave neighs/atom = 427.4816
Ave special neighs/atom = 2.25088
Neighbor list builds = 1525
Dangerous builds = 0
Total wall time: 0:15:52
