LAMMPS (7 Feb 2024 - Update 1)
# PART A - ENERGY MINIMIZATION

# 1) Initialization
units lj
dimension 3
atom_style atomic
pair_style lj/cut 2.5
boundary p p p

# 2) System definition
region simulation_box block -20 20 -20 20 -20 20
create_box 2 simulation_box
Created orthogonal box = (-20 -20 -20) to (20 20 20)
  1 by 1 by 1 MPI processor grid
create_atoms 1 random 5000 341341 simulation_box
Created 5000 atoms
  using lattice units in orthogonal box = (-20 -20 -20) to (20 20 20)
  create_atoms CPU = 0.000 seconds
create_atoms 2 random 5000 127569 simulation_box
Created 5000 atoms
  using lattice units in orthogonal box = (-20 -20 -20) to (20 20 20)
  create_atoms CPU = 0.000 seconds

# 3) Simulation settings
mass 1 1
mass 2 1
pair_coeff 1 1 1.0 1.0
pair_coeff 2 2 1.0 1.0

# 4) Visualization
thermo 10
thermo_style custom step temp pe ke etotal press
dump dump_all_atoms_per_100_timestep all atom 10 dump_all_atoms_per_100_timestep.min.lammpstrj

# 5) Run
minimize 1.0e-4 1.0e-6 1000 10000
Generated 1 of 1 mixed pair_coeff terms from geometric mixing rule
Neighbor list info ...
  update: every = 1 steps, delay = 0 steps, check = yes
  max neighbors/atom: 2000, page size: 100000
  master list distance cutoff = 2.8
  ghost atom cutoff = 2.8
  binsize = 1.4, bins = 29 29 29
  1 neighbor lists, perpetual/occasional/extra = 1 0 0
  (1) pair lj/cut, perpetual
      attributes: half, newton on
      pair build: half/bin/atomonly/newton
      stencil: half/bin/3d
      bin: standard
Per MPI rank memory allocation (min/avg/max) = 4.541 | 4.541 | 4.541 Mbytes
   Step          Temp          PotEng         KinEng         TotEng         Press     
         0   0              1.5190037e+10  0              1.5190037e+10  9.4937749e+09
        10   0              12849.81       0              12849.81       8047.2393    
        20   0              6.3440237      0              6.3440237      5.4408067    
        30   0             -1.1828989      0             -1.1828989     -0.13296995   
        40   0             -1.4237486      0             -1.4237486     -0.13769322   
        50   0             -1.6122338      0             -1.6122338     -0.11970711   
        60   0             -1.7806697      0             -1.7806697     -0.10668102   
        70   0             -1.912428       0             -1.912428      -0.099390172  
        80   0             -2.0279623      0             -2.0279623     -0.092551059  
        90   0             -2.1206777      0             -2.1206777     -0.089464954  
       100   0             -2.2280095      0             -2.2280095     -0.085236868  
       110   0             -2.3234833      0             -2.3234833     -0.083143815  
       120   0             -2.4281245      0             -2.4281245     -0.078364128  
       130   0             -2.5299025      0             -2.5299025     -0.076625588  
       140   0             -2.6301698      0             -2.6301698     -0.074151453  
       150   0             -2.7054228      0             -2.7054228     -0.071729884  
       160   0             -2.8117351      0             -2.8117351     -0.066077656  
       170   0             -2.9011482      0             -2.9011482     -0.064198886  
       180   0             -2.9766063      0             -2.9766063     -0.064507118  
       190   0             -3.0577351      0             -3.0577351     -0.065443249  
       200   0             -3.1313807      0             -3.1313807     -0.061931636  
       210   0             -3.194168       0             -3.194168      -0.053716481  
       220   0             -3.2556609      0             -3.2556609     -0.053977391  
       230   0             -3.3187868      0             -3.3187868     -0.054133831  
       240   0             -3.3644074      0             -3.3644074     -0.055225181  
       250   0             -3.4155897      0             -3.4155897     -0.054490315  
       260   0             -3.4707041      0             -3.4707041     -0.047502971  
       270   0             -3.5330976      0             -3.5330976     -0.044612219  
       280   0             -3.5908855      0             -3.5908855     -0.044444623  
       290   0             -3.6414021      0             -3.6414021     -0.042641716  
       300   0             -3.6910854      0             -3.6910854     -0.040521385  
       310   0             -3.7381881      0             -3.7381881     -0.037987386  
       320   0             -3.7767454      0             -3.7767454     -0.039233216  
       330   0             -3.8159936      0             -3.8159936     -0.036576687  
       340   0             -3.8513854      0             -3.8513854     -0.037235908  
       350   0             -3.8852515      0             -3.8852515     -0.035247411  
       360   0             -3.915869       0             -3.915869      -0.035454939  
       370   0             -3.9484817      0             -3.9484817     -0.033749632  
       380   0             -3.9786325      0             -3.9786325     -0.032523735  
       390   0             -4.0027111      0             -4.0027111     -0.032420013  
       400   0             -4.0281441      0             -4.0281441     -0.032003671  
       410   0             -4.0533689      0             -4.0533689     -0.032968927  
       420   0             -4.0729434      0             -4.0729434     -0.031557154  
       430   0             -4.0920225      0             -4.0920225     -0.030483185  
       440   0             -4.1140842      0             -4.1140842     -0.029577607  
       450   0             -4.1282682      0             -4.1282682     -0.028323305  
       460   0             -4.1452788      0             -4.1452788     -0.027443373  
       470   0             -4.1623516      0             -4.1623516     -0.026236775  
       480   0             -4.177844       0             -4.177844      -0.028293708  
       490   0             -4.1939474      0             -4.1939474     -0.027431193  
       500   0             -4.2081449      0             -4.2081449     -0.028540659  
       510   0             -4.226128       0             -4.226128      -0.027695579  
       520   0             -4.2424499      0             -4.2424499     -0.026949124  
       530   0             -4.254982       0             -4.254982      -0.02601389   
       540   0             -4.2694015      0             -4.2694015     -0.02454778   
       550   0             -4.2810992      0             -4.2810992     -0.0252004    
       560   0             -4.2961237      0             -4.2961237     -0.024404426  
       570   0             -4.3104749      0             -4.3104749     -0.023226521  
       580   0             -4.3229877      0             -4.3229877     -0.022158585  
       590   0             -4.3381006      0             -4.3381006     -0.022324155  
       600   0             -4.3561286      0             -4.3561286     -0.022845712  
       610   0             -4.3714954      0             -4.3714954     -0.021918481  
       620   0             -4.3849268      0             -4.3849268     -0.022316726  
       630   0             -4.3972116      0             -4.3972116     -0.022176654  
       640   0             -4.4113435      0             -4.4113435     -0.020710194  
       650   0             -4.4224262      0             -4.4224262     -0.020821392  
       660   0             -4.4334118      0             -4.4334118     -0.021573069  
       670   0             -4.4464258      0             -4.4464258     -0.021261477  
       680   0             -4.4599681      0             -4.4599681     -0.020071522  
       690   0             -4.4702783      0             -4.4702783     -0.02020439   
       700   0             -4.482075       0             -4.482075      -0.020662919  
       710   0             -4.493782       0             -4.493782      -0.020245106  
       720   0             -4.5060549      0             -4.5060549     -0.020461013  
       730   0             -4.5204011      0             -4.5204011     -0.019933185  
       740   0             -4.5332217      0             -4.5332217     -0.020078122  
       750   0             -4.5413912      0             -4.5413912     -0.021649707  
       752   0             -4.5423407      0             -4.5423407     -0.021155407  
Loop time of 3.34772 on 1 procs for 752 steps with 10000 atoms

98.5% CPU use with 1 MPI tasks x no OpenMP threads

Minimization stats:
  Stopping criterion = energy tolerance
  Energy initial, next-to-last, final = 
      15190037131.4697  -4.54193893845349  -4.54234074124935
  Force two-norm initial, final = 2.8805571e+16 48.501257
  Force max component initial, final = 1.8478427e+16 17.843017
  Final line search alpha, max atom move = 0.013166564 0.23493123
  Iterations, force evaluations = 752 1290

MPI task timing breakdown:
Section |  min time  |  avg time  |  max time  |%varavg| %total
---------------------------------------------------------------
Pair    | 1.7712     | 1.7712     | 1.7712     |   0.0 | 52.91
Neigh   | 1.1377     | 1.1377     | 1.1377     |   0.0 | 33.99
Comm    | 0.047637   | 0.047637   | 0.047637   |   0.0 |  1.42
Output  | 0.25885    | 0.25885    | 0.25885    |   0.0 |  7.73
Modify  | 0          | 0          | 0          |   0.0 |  0.00
Other   |            | 0.1323     |            |       |  3.95

Nlocal:          10000 ave       10000 max       10000 min
Histogram: 1 0 0 0 0 0 0 0 0 0
Nghost:           5074 ave        5074 max        5074 min
Histogram: 1 0 0 0 0 0 0 0 0 0
Neighs:         171388 ave      171388 max      171388 min
Histogram: 1 0 0 0 0 0 0 0 0 0

Total # of neighbors = 171388
Ave neighs/atom = 17.1388
Neighbor list builds = 315
Dangerous builds = 2
write_data minimized_coordinate.data
System init for write_data ...
Generated 1 of 1 mixed pair_coeff terms from geometric mixing rule
Total wall time: 0:00:03
